LAMMPS (23 Jun 2022 - Update 1)
OMP_NUM_THREADS environment is not set. Defaulting to 1 thread. (../comm.cpp:98)
  using 1 OpenMP thread(s) per MPI task

# 1------general---------------
units                             metal      #单位为lammps 中的metel 类型
dimension                    3          #模拟的维度 三维
boundary                    p p p      #周期边界条件
atom_style                  atomic   #原子类型自动
atom_modify              map array sort 100 2.0
neighbor                    3.0 bin
neigh_modify            every 1 delay 0 check yes
#2 -----global variable-------定义全局变量，方便统一修改；
variable temperature equal 300
variable tstep equal 0.001
variable pressure equal 0
variable thermalstep equal 100
variable dumpstep equal 1000
variable relaxtime equal 0
variable totaltime equal 200000
variable deformrate equal 5e-3
#3 -------model------------
#box tilt large
read_data     1.lmp
Reading data file ...
  orthogonal box = (-25 -25 -0.606218) to (25 25 110.93785)
  1 by 2 by 4 MPI processor grid
  reading atoms ...
  2928 atoms
  reading velocities ...
  2928 velocities
  read_data CPU = 0.016 seconds
pair_style hybrid airebo 3.0 airebo 3.0 airebo 3.0 lj/cut 10
pair_coeff * * airebo 1 CH.airebo C NULL NULL
Reading airebo potential file CH.airebo with DATE: 2011-10-25
pair_coeff * * airebo 2 CH.airebo NULL C NULL
Reading airebo potential file CH.airebo with DATE: 2011-10-25
pair_coeff * * airebo 3 CH.airebo NULL NULL C
Reading airebo potential file CH.airebo with DATE: 2011-10-25
pair_coeff 1 2 lj/cut 0.00456 3.431
pair_coeff 1 3 lj/cut 0.00456 3.431
pair_coeff 2 3 lj/cut 0.00456 3.431

# 5------minimize -----------
min_style      sd
minimize       1.0e-4 1.0e-6 100 1000
Neighbor list info ...
  update every 1 steps, delay 0 steps, check yes
  max neighbors/atom: 2000, page size: 100000
  master list distance cutoff = 13.2
  ghost atom cutoff = 13.2
  binsize = 6.6, bins = 8 8 17
  6 neighbor lists, perpetual/occasional/extra = 6 0 0
  (1) pair airebo, perpetual, skip from (5)
      attributes: full, newton on, ghost
      pair build: skip/ghost
      stencil: none
      bin: none
  (2) pair airebo, perpetual, skip from (5)
      attributes: full, newton on, ghost
      pair build: skip/ghost
      stencil: none
      bin: none
  (3) pair airebo, perpetual, skip from (5)
      attributes: full, newton on, ghost
      pair build: skip/ghost
      stencil: none
      bin: none
  (4) pair lj/cut, perpetual, skip from (6)
      attributes: half, newton on
      pair build: skip
      stencil: none
      bin: none
  (5) neighbor class addition, perpetual
      attributes: full, newton on, ghost
      pair build: full/bin/ghost
      stencil: full/ghost/bin/3d
      bin: standard
  (6) neighbor class addition, perpetual
      attributes: half, newton on
      pair build: half/bin/atomonly/newton
      stencil: half/bin/3d
      bin: standard
Per MPI rank memory allocation (min/avg/max) = 10.25 | 10.25 | 10.25 Mbytes
   Step          Temp          E_pair         E_mol          TotEng         Press     
         0   0             -20344.756      0             -20344.756      27546.587    
        16   0             -21241.397      0             -21241.397      313.77327    
Loop time of 0.177711 on 8 procs for 16 steps with 2928 atoms

98.5% CPU use with 8 MPI tasks x 1 OpenMP threads

Minimization stats:
  Stopping criterion = energy tolerance
  Energy initial, next-to-last, final = 
     -20344.7559264538  -21240.4212891911  -21241.3968525428
  Force two-norm initial, final = 721.12526 10.912003
  Force max component initial, final = 114.90068 1.6104143
  Final line search alpha, max atom move = 0.031085587 0.050060673
  Iterations, force evaluations = 16 28

MPI task timing breakdown:
Section |  min time  |  avg time  |  max time  |%varavg| %total
---------------------------------------------------------------
Pair    | 0.15125    | 0.16612    | 0.175      |   2.1 | 93.48
Neigh   | 0          | 0          | 0          |   0.0 |  0.00
Comm    | 0.0015281  | 0.0098992  | 0.02526    |   8.6 |  5.57
Output  | 0          | 0          | 0          |   0.0 |  0.00
Modify  | 0          | 0          | 0          |   0.0 |  0.00
Other   |            | 0.001696   |            |       |  0.95

Nlocal:            366 ave         378 max         354 min
Histogram: 4 0 0 0 0 0 0 0 0 4
Nghost:           1062 ave        1074 max        1050 min
Histogram: 4 0 0 0 0 0 0 0 0 4
Neighs:              0 ave           0 max           0 min
Histogram: 8 0 0 0 0 0 0 0 0 0

Total # of neighbors = 0
Ave neighs/atom = 0
Neighbor list builds = 0
Dangerous builds = 0
#6----define computes------
variable nums equal count(all) #计算原子数目
variable toval equal lx*ly*16 #计算系统总体积，单层石墨烯厚度为0.335nm
variable vol equal ${toval} #体系的初始体积
variable vol equal 40000 
variable vatom equal v_vol/v_nums #单个原子体积
compute 1 all stress/atom NULL #计算体系中单原子应力
compute xalls all reduce sum c_1[1]
variable xstress equal (c_xalls)/(v_toval*10000)
compute yalls all reduce sum c_1[2]
variable ystress equal (c_yalls)/(v_toval*10000)
compute zalls all reduce sum c_1[3]
variable zstress equal (c_zalls)/(v_toval*10000)
#7---------relaxation-------------------------
timestep ${tstep}
timestep 0.001
velocity all create ${temperature} 639549 units box dist gaussian
velocity all create 300 639549 units box dist gaussian
dump   1 all atom 100 all-cy.lammpstrj
#fix    1 all npt temp 300 300  0.1 aniso 0 0 10 drag 1  #三个方向独立控压
fix  1 all npt temp ${temperature} ${temperature} 0.1 x ${pressure} ${pressure} 10 y ${pressure} ${pressure} 10
fix  1 all npt temp 300 ${temperature} 0.1 x ${pressure} ${pressure} 10 y ${pressure} ${pressure} 10
fix  1 all npt temp 300 300 0.1 x ${pressure} ${pressure} 10 y ${pressure} ${pressure} 10
fix  1 all npt temp 300 300 0.1 x 0 ${pressure} 10 y ${pressure} ${pressure} 10
fix  1 all npt temp 300 300 0.1 x 0 0 10 y ${pressure} ${pressure} 10
fix  1 all npt temp 300 300 0.1 x 0 0 10 y 0 ${pressure} 10
fix  1 all npt temp 300 300 0.1 x 0 0 10 y 0 0 10
compute  2 all pe/atom
compute  pe all reduce sum c_2
variable PE equal "c_pe"
fix    pe all print 100 "${PE} " file PE.txt screen no
thermo  ${thermalstep}
thermo  100
#thermo_style  custom step pe ke etotal lx ly lz
run   ${relaxtime}
run   0
Per MPI rank memory allocation (min/avg/max) = 10.88 | 10.88 | 10.88 Mbytes
   Step          Temp          E_pair         E_mol          TotEng         Press          Volume    
        16   300           -21241.397      0             -21127.894      748.5249       278860.18    
Loop time of 8.05388e-06 on 8 procs for 0 steps with 2928 atoms

69.8% CPU use with 8 MPI tasks x 1 OpenMP threads

MPI task timing breakdown:
Section |  min time  |  avg time  |  max time  |%varavg| %total
---------------------------------------------------------------
Pair    | 0          | 0          | 0          |   0.0 |  0.00
Neigh   | 0          | 0          | 0          |   0.0 |  0.00
Comm    | 0          | 0          | 0          |   0.0 |  0.00
Output  | 0          | 0          | 0          |   0.0 |  0.00
Modify  | 0          | 0          | 0          |   0.0 |  0.00
Other   |            | 8.054e-06  |            |       |100.00

Nlocal:            366 ave         369 max         363 min
Histogram: 4 0 0 0 0 0 0 0 0 4
Nghost:           1062 ave        1065 max        1059 min
Histogram: 4 0 0 0 0 0 0 0 0 4
Neighs:              0 ave           0 max           0 min
Histogram: 8 0 0 0 0 0 0 0 0 0

Total # of neighbors = 0
Ave neighs/atom = 0
Neighbor list builds = 0
Dangerous builds = 0
#8 -------tension-----------------------------
unfix  1
undump  1
unfix  pe
reset_timestep 0
fix avestress all ave/atom 1 ${dumpstep} ${dumpstep} c_1[1] c_1[2] c_1[3] c_1[4] c_1[5] c_1[6]
fix avestress all ave/atom 1 1000 ${dumpstep} c_1[1] c_1[2] c_1[3] c_1[4] c_1[5] c_1[6]
fix avestress all ave/atom 1 1000 1000 c_1[1] c_1[2] c_1[3] c_1[4] c_1[5] c_1[6]

#-----calculation of strain and Cumulative compression--------
variable                tmp equal "lz"
variable                L0 equal ${tmp}
variable                L0 equal 111.544072
variable                strain equal "(lz - v_L0)/v_L0"
variable                Cumulativels equal "(lz - v_L0)/10"
fix Step all print 100 "${strain} ${Cumulativels} ${zstress}" file grapoten.txt screen no

dump 2 all custom ${dumpstep} tension.xyz type x y z f_avestress[1] f_avestress[2] f_avestress[3] f_avestress[4] f_avestress[5] f_avestress[6]
dump 2 all custom 1000 tension.xyz type x y z f_avestress[1] f_avestress[2] f_avestress[3] f_avestress[4] f_avestress[5] f_avestress[6]

fix  1 all npt temp ${temperature} ${temperature} 0.1 y ${pressure} ${pressure} 10 x ${pressure} ${pressure} 10
fix  1 all npt temp 300 ${temperature} 0.1 y ${pressure} ${pressure} 10 x ${pressure} ${pressure} 10
fix  1 all npt temp 300 300 0.1 y ${pressure} ${pressure} 10 x ${pressure} ${pressure} 10
fix  1 all npt temp 300 300 0.1 y 0 ${pressure} 10 x ${pressure} ${pressure} 10
fix  1 all npt temp 300 300 0.1 y 0 0 10 x ${pressure} ${pressure} 10
fix  1 all npt temp 300 300 0.1 y 0 0 10 x 0 ${pressure} 10
fix  1 all npt temp 300 300 0.1 y 0 0 10 x 0 0 10

thermo_style custom step pe ke etotal lx ly lz
fix   2 all deform 1 z erate ${deformrate} remap x units box
fix   2 all deform 1 z erate 0.005 remap x units box
fix   3 all ave/time 2 500 1000 v_xstress v_ystress v_zstress file pressure.out
run   ${totaltime}
run   200000
Per MPI rank memory allocation (min/avg/max) = 13.65 | 13.65 | 13.65 Mbytes
   Step         PotEng         KinEng         TotEng           Lx             Ly             Lz      
         0  -21241.397      113.50333     -21127.894      50             50             111.54407    
       100  -21220.9        103.09772     -21117.802      50.006347      49.986762      111.59984    
       200  -21228.4        113.04561     -21115.354      50.005008      49.95971       111.65562    
       300  -21216.752      101.62097     -21115.131      50.028356      49.947312      111.71139    
       400  -21222.396      115.41425     -21106.982      50.033684      49.922051      111.76716    
       500  -21217.455      117.39277     -21100.063      50.05582       49.910419      111.82293    
       600  -21215.329      120.12176     -21095.207      50.060871      49.900693      111.8787     
       700  -21210.894      120.27013     -21090.624      50.061298      49.909991      111.93448    
       800  -21199.649      111.91173     -21087.738      50.058774      49.931489      111.99025    
       900  -21194.246      110.8894      -21083.356      50.031768      49.943702      112.04602    
      1000  -21205.01       124.80762     -21080.202      50.018492      49.962325      112.10179    
      1100  -21212.338      121.42521     -21090.913      49.993059      49.971252      112.15756    
      1200  -21205.215      108.51169     -21096.703      49.981542      49.986031      112.21334    
      1300  -21199.493      106.51004     -21092.983      49.964008      49.992825      112.26911    
      1400  -21194.247      110.38554     -21083.861      49.953572      50.00522       112.32488    
      1500  -21193.797      116.74085     -21077.056      49.945791      50.018462      112.38065    
      1600  -21188.615      111.63818     -21076.977      49.936128      50.022316      112.43642    
      1700  -21191.208      114.7565      -21076.451      49.934019      50.029252      112.4922     
      1800  -21195.443      116.61946     -21078.824      49.931401      50.027021      112.54797    
      1900  -21195.91       112.23187     -21083.678      49.933385      50.02393       112.60374    
      2000  -21191.954      108.76328     -21083.191      49.934529      50.020861      112.65951    
      2100  -21191.205      114.5889      -21076.616      49.933794      50.017107      112.71528    
      2200  -21187.548      114.01153     -21073.537      49.93415       50.018113      112.77106    
      2300  -21190.887      116.92348     -21073.964      49.930192      50.015979      112.82683    
      2400  -21188.22       111.08766     -21077.132      49.9311        50.017979      112.8826     
      2500  -21188.53       111.14533     -21077.384      49.928731      50.01332       112.93837    
      2600  -21187.25       110.38991     -21076.86       49.932384      50.011354      112.99414    
      2700  -21189.322      115.50455     -21073.818      49.93534       50.005668      113.04992    
      2800  -21185.524      112.53366     -21072.99       49.938096      49.998277      113.10569    
      2900  -21185.728      111.97136     -21073.756      49.943038      49.995908      113.16146    
      3000  -21183.167      111.96041     -21071.206      49.941975      49.989143      113.21723    
      3100  -21179.457      112.95602     -21066.501      49.944862      49.988652      113.27301    
      3200  -21178.791      113.1721      -21065.619      49.943547      49.98555       113.32878    
      3300  -21180.874      113.97556     -21066.898      49.942109      49.984915      113.38455    
      3400  -21181.583      113.0156      -21068.567      49.939407      49.983781      113.44032    
      3500  -21182.691      111.8068      -21070.884      49.936807      49.982332      113.49609    
      3600  -21179.343      111.8613      -21067.482      49.937156      49.982595      113.55187    
      3700  -21173.619      111.73433     -21061.885      49.935546      49.980372      113.60764    
      3800  -21175.917      117.31233     -21058.605      49.933342      49.979571      113.66341    
      3900  -21174.689      115.38903     -21059.3        49.932269      49.98058       113.71918    
      4000  -21173.562      111.32611     -21062.236      49.926241      49.976952      113.77495    
      4100  -21179.578      116.64604     -21062.932      49.926695      49.980215      113.83073    
      4200  -21174.669      110.12002     -21064.549      49.922014      49.979626      113.8865     
      4300  -21172.716      111.20205     -21061.513      49.918424      49.980618      113.94227    
      4400  -21170.567      113.54958     -21057.017      49.916221      49.982879      113.99804    
      4500  -21168.66       113.51163     -21055.148      49.909347      49.97935       114.05381    
      4600  -21165.035      112.57212     -21052.463      49.908393      49.980101      114.10959    
      4700  -21164.063      116.19633     -21047.867      49.905787      49.976741      114.16536    
      4800  -21165.402      117.39128     -21048.011      49.90688       49.975381      114.22113    
      4900  -21162.323      112.19165     -21050.131      49.907843      49.972495      114.2769     
      5000  -21161.877      112.98591     -21048.891      49.90651       49.96778       114.33267    
      5100  -21160.218      113.31277     -21046.905      49.909029      49.966289      114.38845    
      5200  -21157.146      114.32885     -21042.817      49.905546      49.959178      114.44422    
      5300  -21158.019      118.01741     -21040.002      49.908437      49.957959      114.49999    
      5400  -21158.429      115.4179      -21043.011      49.907376      49.954156      114.55576    
      5500  -21156.418      112.03429     -21044.384      49.905238      49.951435      114.61153    
      5600  -21156.479      114.04367     -21042.436      49.903978      49.951856      114.66731    
      5700  -21154.402      113.60687     -21040.795      49.896691      49.948125      114.72308    
      5800  -21155.143      113.61783     -21041.526      49.895499      49.948659      114.77885    
      5900  -21150.227      109.57447     -21040.652      49.89082       49.946951      114.83462    
      6000  -21149.155      114.2624      -21034.892      49.88717       49.946566      114.89039    
      6100  -21145.39       114.05571     -21031.334      49.883895      49.946968      114.94617    
      6200  -21144.316      112.31262     -21032.003      49.878399      49.946549      115.00194    
      6300  -21144.094      112.22872     -21031.866      49.875932      49.947889      115.05771    
      6400  -21140.343      111.61988     -21028.723      49.870997      49.945898      115.11348    
      6500  -21135.51       113.95484     -21021.556      49.86872       49.945789      115.16925    
      6600  -21135.157      115.32995     -21019.827      49.866507      49.944397      115.22503    
      6700  -21135.582      114.09835     -21021.483      49.863006      49.940952      115.2808     
      6800  -21136.047      114.63987     -21021.407      49.86107       49.940022      115.33657    
      6900  -21132.808      114.25096     -21018.557      49.855918      49.935623      115.39234    
      7000  -21128.954      114.91086     -21014.043      49.852388      49.932856      115.44811    
      7100  -21126.785      115.68119     -21011.104      49.849757      49.929649      115.50389    
      7200  -21129.451      116.12454     -21013.326      49.846989      49.926664      115.55966    
      7300  -21124.859      111.77863     -21013.081      49.846375      49.925978      115.61543    
      7400  -21124.284      114.89495     -21009.389      49.841708      49.923122      115.6712     
      7500  -21121.775      114.04328     -21007.732      49.840839      49.923887      115.72697    
      7600  -21121.417      112.11176     -21009.305      49.835307      49.921302      115.78275    
      7700  -21120.474      110.79954     -21009.675      49.832709      49.920315      115.83852    
      7800  -21118.588      113.85059     -21004.738      49.829738      49.917911      115.89429    
      7900  -21116.533      115.69188     -21000.841      49.826033      49.913828      115.95006    
      8000  -21111.743      112.68796     -20999.055      49.825246      49.91045       116.00583    
      8100  -21110.565      115.17705     -20995.388      49.820382      49.904365      116.06161    
      8200  -21107.189      116.28757     -20990.902      49.819077      49.902084      116.11738    
      8300  -21102.752      114.94696     -20987.805      49.812895      49.896922      116.17315    
      8400  -21101.661      112.597       -20989.064      49.811465      49.895366      116.22892    
      8500  -21101.826      112.23229     -20989.594      49.807826      49.892997      116.2847     
      8600  -21096.127      110.46948     -20985.658      49.802124      49.890266      116.34047    
      8700  -21094.15       113.57102     -20980.579      49.799615      49.890662      116.39624    
      8800  -21094.594      115.37936     -20979.214      49.790868      49.886591      116.45201    
      8900  -21092.314      113.13966     -20979.175      49.788573      49.887337      116.50778    
      9000  -21090.648      113.95088     -20976.698      49.782205      49.884095      116.56356    
      9100  -21088.012      115.02622     -20972.986      49.778364      49.882484      116.61933    
      9200  -21083.321      115.11827     -20968.202      49.77439       49.881123      116.6751     
      9300  -21080.568      118.50784     -20962.06       49.768471      49.877353      116.73087    
      9400  -21077.677      115.01842     -20962.658      49.767708      49.876861      116.78664    
      9500  -21079.428      114.88449     -20964.543      49.760997      49.870371      116.84242    
      9600  -21075.076      111.17671     -20963.899      49.759161      49.866243      116.89819    
      9700  -21073.237      111.74605     -20961.491      49.7566        49.860586      116.95396    
      9800  -21071.746      115.69222     -20956.053      49.752785      49.853278      117.00973    
      9900  -21067.166      114.99114     -20952.174      49.752683      49.850005      117.0655     
     10000  -21064.561      112.52426     -20952.037      49.746069      49.842775      117.12128    
     10100  -21062.846      109.51788     -20953.329      49.743622      49.840034      117.17705    
     10200  -21061.682      112.0185      -20949.664      49.738301      49.836091      117.23282    
     10300  -21057.548      111.95047     -20945.597      49.732421      49.832901      117.28859    
     10400  -21056.155      113.78095     -20942.374      49.728495      49.83225       117.34436    
     10500  -21055.358      113.10615     -20942.252      49.719396      49.828751      117.40014    
     10600  -21056.653      113.69668     -20942.956      49.715784      49.829246      117.45591    
     10700  -21053.732      114.80086     -20938.931      49.707383      49.82525       117.51168    
     10800  -21045.778      112.18819     -20933.59       49.701422      49.822615      117.56745    
     10900  -21043.383      113.89875     -20929.485      49.695842      49.819417      117.62322    
     11000  -21040.049      113.56896     -20926.48       49.686759      49.814115      117.679      
     11100  -21035.733      111.19815     -20924.535      49.681983      49.813044      117.73477    
     11200  -21035.329      111.54722     -20923.781      49.673617      49.808075      117.79054    
     11300  -21037.171      113.62154     -20923.549      49.668676      49.804904      117.84631    
     11400  -21028.256      108.83638     -20919.42       49.663732      49.801517      117.90208    
     11500  -21028.424      116.05538     -20912.368      49.655958      49.795379      117.95786    
     11600  -21020.599      112.15501     -20908.444      49.652498      49.791935      118.01363    
     11700  -21020.011      114.63512     -20905.376      49.64498       49.784268      118.0694     
     11800  -21017.082      111.57586     -20905.506      49.640902      49.779167      118.12517    
     11900  -21018.491      112.67794     -20905.813      49.635287      49.773331      118.18094    
     12000  -21010.834      109.41578     -20901.419      49.628114      49.766406      118.23672    
     12100  -21011.142      115.22987     -20895.912      49.623738      49.762405      118.29249    
     12200  -21004.876      112.27511     -20892.601      49.614954      49.756408      118.34826    
     12300  -21005.733      115.41767     -20890.316      49.607139      49.751542      118.40403    
     12400  -21001.342      109.70709     -20891.635      49.599937      49.74693       118.4598     
     12500  -20999.525      110.0533      -20889.472      49.590997      49.740751      118.51558    
     12600  -20997.534      113.60842     -20883.925      49.584976      49.736572      118.57135    
     12700  -20992.465      113.24522     -20879.22       49.575941      49.729977      118.62712    
     12800  -20988.128      113.69839     -20874.429      49.567819      49.725412      118.68289    
     12900  -20983.808      114.49464     -20869.314      49.558191      49.720178      118.73866    
     13000  -20983.482      116.45649     -20867.025      49.547698      49.714716      118.79444    
     13100  -20978.314      109.76238     -20868.552      49.538435      49.710758      118.85021    
     13200  -20980.37       113.35471     -20867.015      49.527565      49.705511      118.90598    
     13300  -20976.75       114.08708     -20862.663      49.518708      49.701842      118.96175    
     13400  -20970.791      112.6878      -20858.103      49.507841      49.697006      119.01752    
     13500  -20967.479      113.81947     -20853.659      49.496573      49.69184       119.0733     
     13600  -20964.034      114.0483      -20849.986      49.485688      49.686145      119.12907    
     13700  -20961.929      114.5236      -20847.405      49.473905      49.678628      119.18484    
     13800  -20957.426      112.24567     -20845.181      49.464201      49.672664      119.24061    
     13900  -20954.417      112.73248     -20841.685      49.452378      49.665458      119.29639    
     14000  -20949.315      113.85995     -20835.455      49.440921      49.659091      119.35216    
     14100  -20944.883      114.86187     -20830.021      49.42907       49.652488      119.40793    
     14200  -20939.435      112.31169     -20827.123      49.41637       49.644681      119.4637     
     14300  -20940.616      113.42862     -20827.188      49.405326      49.638812      119.51947    
     14400  -20938.8        112.75811     -20826.042      49.391104      49.630411      119.57525    
     14500  -20932.5        110.395       -20822.105      49.379189      49.623722      119.63102    
     14600  -20930.829      113.11535     -20817.713      49.366794      49.617202      119.68679    
     14700  -20928.157      114.89305     -20813.263      49.352383      49.609163      119.74256    
     14800  -20923.911      114.07596     -20809.835      49.339066      49.603203      119.79833    
     14900  -20920.346      113.15833     -20807.187      49.323458      49.594374      119.85411    
     15000  -20916.59       111.34492     -20805.245      49.309067      49.585622      119.90988    
     15100  -20916.699      114.21665     -20802.482      49.295108      49.576175      119.96565    
     15200  -20910.719      112.96857     -20797.751      49.279537      49.565204      120.02142    
     15300  -20903.822      112.66066     -20791.161      49.26609       49.556357      120.07719    
     15400  -20902.263      116.71002     -20785.553      49.250279      49.545571      120.13297    
     15500  -20897.604      113.70911     -20783.895      49.234637      49.536909      120.18874    
     15600  -20896.342      112.36352     -20783.978      49.218077      49.528185      120.24451    
     15700  -20890.314      110.18938     -20780.125      49.201114      49.518939      120.30028    
     15800  -20888.451      114.22181     -20774.23       49.185375      49.509721      120.35605    
     15900  -20884.016      115.22915     -20768.787      49.167905      49.496794      120.41183    
     16000  -20880.284      112.57202     -20767.712      49.152662      49.4856        120.4676     
     16100  -20878.695      111.39269     -20767.302      49.134583      49.472653      120.52337    
     16200  -20875.79       112.90662     -20762.884      49.116602      49.46146       120.57914    
     16300  -20869.292      112.09728     -20757.195      49.098287      49.450502      120.63491    
     16400  -20864.766      113.85116     -20750.915      49.077948      49.438263      120.69069    
     16500  -20860.75       115.13181     -20745.619      49.05913       49.42832       120.74646    
     16600  -20858.39       115.09572     -20743.294      49.037337      49.415739      120.80223    
     16700  -20853.589      112.70725     -20740.882      49.017011      49.404064      120.858      
     16800  -20848.679      111.25524     -20737.423      48.996402      49.391639      120.91377    
     16900  -20846.346      112.40786     -20733.938      48.975369      49.377862      120.96955    
     17000  -20843.041      113.91621     -20729.125      48.955573      49.365284      121.02532    
     17100  -20838.753      115.75706     -20722.996      48.934977      49.351368      121.08109    
     17200  -20834.291      114.2936      -20719.997      48.914159      49.33651       121.13686    
     17300  -20833.57       112.86014     -20720.71       48.893219      49.32184       121.19263    
     17400  -20829.42       111.96991     -20717.451      48.871981      49.307692      121.24841    
     17500  -20824.706      113.54119     -20711.165      48.850038      49.294076      121.30418    
     17600  -20819.803      114.73029     -20705.073      48.826863      49.27939       121.35995    
     17700  -20816.077      114.87009     -20701.207      48.803507      49.264206      121.41572    
     17800  -20811.46       112.92469     -20698.535      48.78127       49.249478      121.47149    
     17900  -20808.492      113.56065     -20694.931      48.757827      49.23299       121.52727    
     18000  -20802.46       112.26724     -20690.193      48.735688      49.21667       121.58304    
     18100  -20799.111      114.48618     -20684.625      48.712479      49.199774      121.63881    
     18200  -20794.38       114.64819     -20679.732      48.688889      49.182786      121.69458    
     18300  -20790.135      113.1982      -20676.937      48.665539      49.16699       121.75035    
     18400  -20788.981      112.49511     -20676.486      48.641259      49.150641      121.80613    
     18500  -20784.3        111.32443     -20672.976      48.617159      49.134587      121.8619     
     18600  -20780.677      115.56352     -20665.114      48.592861      49.119118      121.91767    
     18700  -20773.86       113.66028     -20660.2        48.56768       49.103016      121.97344    
     18800  -20772.552      115.13242     -20657.42       48.542504      49.086895      122.02921    
     18900  -20767.847      112.40599     -20655.441      48.518246      49.071523      122.08499    
     19000  -20763.357      111.41614     -20651.94       48.49319       49.054362      122.14076    
     19100  -20757.131      113.483       -20643.648      48.468981      49.037473      122.19653    
     19200  -20753.005      115.62436     -20637.38       48.444784      49.020202      122.2523     
     19300  -20750.855      115.58326     -20635.272      48.420021      49.001693      122.30807    
     19400  -20745.703      113.19595     -20632.507      48.396168      48.984711      122.36385    
     19500  -20742.162      113.57358     -20628.588      48.372006      48.967257      122.41962    
     19600  -20736.293      112.50767     -20623.785      48.348425      48.950035      122.47539    
     19700  -20732.055      113.52186     -20618.533      48.325306      48.933405      122.53116    
     19800  -20728.304      114.50686     -20613.797      48.301146      48.916227      122.58694    
     19900  -20722.876      117.34493     -20605.531      48.277505      48.90097       122.64271    
     20000  -20715.901      114.36309     -20601.538      48.253112      48.885567      122.69848    
     20100  -20714.158      113.06745     -20601.091      48.228751      48.869785      122.75425    
     20200  -20711.749      113.07661     -20598.673      48.205808      48.854873      122.81002    
     20300  -20708.596      113.23033     -20595.366      48.1828        48.838775      122.8658     
     20400  -20703.16       111.78861     -20591.372      48.160331      48.822065      122.92157    
     20500  -20697.854      113.50041     -20584.354      48.138173      48.805702      122.97734    
     20600  -20692.805      115.22474     -20577.58       48.116237      48.790023      123.03311    
     20700  -20688.416      113.91627     -20574.5        48.094525      48.775374      123.08888    
     20800  -20686.425      112.97105     -20573.454      48.071828      48.76042       123.14466    
     20900  -20680.894      110.80714     -20570.087      48.05072       48.746161      123.20043    
     21000  -20674.192      113.79894     -20560.393      48.028719      48.731142      123.2562     
     21100  -20673.068      118.23295     -20554.835      48.007449      48.71745       123.31197    
     21200  -20668.369      115.45633     -20552.913      47.986213      48.703905      123.36774    
     21300  -20662.344      111.26077     -20551.084      47.965178      48.68971       123.42352    
     21400  -20660.83       114.13858     -20546.692      47.94645       48.676055      123.47929    
     21500  -20650.892      111.79897     -20539.094      47.927539      48.661173      123.53506    
     21600  -20646.807      115.91636     -20530.891      47.909423      48.647768      123.59083    
     21700  -20642.454      114.74879     -20527.706      47.891334      48.634789      123.6466     
     21800  -20638.093      112.71736     -20525.376      47.87292       48.621838      123.70238    
     21900  -20635.798      113.99317     -20521.805      47.855115      48.609568      123.75815    
     22000  -20631.333      114.27155     -20517.062      47.837616      48.597268      123.81392    
     22100  -20623.63       112.45631     -20511.174      47.820482      48.585799      123.86969    
     22200  -20618.696      113.77111     -20504.925      47.804602      48.574211      123.92546    
     22300  -20613.904      113.86067     -20500.043      47.788672      48.562351      123.98124    
     22400  -20613.18       114.46517     -20498.715      47.772226      48.550187      124.03701    
     22500  -20606.609      110.20087     -20496.409      47.756252      48.538445      124.09278    
     22600  -20603.156      112.29972     -20490.857      47.740492      48.527027      124.14855    
     22700  -20598.154      113.89933     -20484.254      47.724829      48.515706      124.20432    
     22800  -20593.684      114.7404      -20478.943      47.710128      48.505281      124.2601     
     22900  -20586.92       112.63521     -20474.285      47.695622      48.494779      124.31587    
     23000  -20581.981      113.02987     -20468.951      47.681591      48.484467      124.37164    
     23100  -20576.9        113.82185     -20463.078      47.668338      48.474602      124.42741    
     23200  -20571.428      113.5533      -20457.874      47.654451      48.464565      124.48318    
     23300  -20569.077      114.69858     -20454.379      47.641727      48.455852      124.53896    
     23400  -20564.886      112.28503     -20452.601      47.629245      48.446897      124.59473    
     23500  -20561.406      112.87031     -20448.536      47.616407      48.437606      124.6505     
     23600  -20554.397      114.29202     -20440.105      47.605193      48.429546      124.70627    
     23700  -20548.356      115.7002      -20432.656      47.59194       48.419068      124.76204    
     23800  -20543.979      114.96646     -20429.012      47.580934      48.410616      124.81782    
     23900  -20541.726      114.93124     -20426.795      47.569639      48.401961      124.87359    
     24000  -20534.222      110.88845     -20423.334      47.55804       48.39316       124.92936    
     24100  -20528.683      112.44495     -20416.238      47.547625      48.385947      124.98513    
     24200  -20521.695      115.02967     -20406.666      47.535774      48.377795      125.0409     
     24300  -20520          116.69038     -20403.31       47.524375      48.370611      125.09668    
     24400  -20514.857      113.26805     -20401.588      47.513373      48.362909      125.15245    
     24500  -20510.203      112.13891     -20398.064      47.503011      48.354805      125.20822    
     24600  -20504.451      112.67795     -20391.773      47.492791      48.347171      125.26399    
     24700  -20498.171      115.63946     -20382.531      47.482943      48.339451      125.31976    
     24800  -20495.531      117.91618     -20377.615      47.473868      48.332357      125.37554    
     24900  -20488.238      113.66699     -20374.571      47.465342      48.325415      125.43131    
     25000  -20483.833      112.46493     -20371.368      47.456051      48.317802      125.48708    
     25100  -20480.926      113.82526     -20367.101      47.447093      48.310958      125.54285    
     25200  -20476.075      113.93291     -20362.142      47.437531      48.304889      125.59863    
     25300  -20468.674      113.76009     -20354.914      47.427943      48.299018      125.6544     
     25400  -20465.464      117.80997     -20347.654      47.418695      48.293326      125.71017    
     25500  -20457.617      113.69075     -20343.927      47.409467      48.287526      125.76594    
     25600  -20455.209      112.59419     -20342.615      47.400981      48.281183      125.82171    
     25700  -20449.043      111.8164      -20337.227      47.392823      48.27369       125.87749    
     25800  -20443.282      113.34366     -20329.938      47.386114      48.266985      125.93326    
     25900  -20438.144      114.63039     -20323.514      47.378249      48.259399      125.98903    
     26000  -20430.216      112.14551     -20318.071      47.370515      48.252634      126.0448     
     26100  -20425.351      111.81366     -20313.538      47.36274       48.247241      126.10057    
     26200  -20423.648      110.91405     -20312.734      47.353794      48.241805      126.15635    
     26300  -20419.421      110.94655     -20308.474      47.345518      48.237042      126.21212    
     26400  -20413.438      113.49488     -20299.943      47.337592      48.231582      126.26789    
     26500  -20407.138      114.73773     -20292.4        47.330311      48.225585      126.32366    
     26600  -20403.211      116.37721     -20286.834      47.32307       48.218612      126.37943    
     26700  -20396.405      112.95069     -20283.454      47.316491      48.212396      126.43521    
     26800  -20393.925      112.22683     -20281.698      47.309165      48.206462      126.49098    
     26900  -20385.439      109.38075     -20276.058      47.301234      48.201057      126.54675    
     27000  -20377.246      112.40676     -20264.839      47.292908      48.196133      126.60252    
     27100  -20373.17       114.15707     -20259.013      47.284386      48.191154      126.65829    
     27200  -20370.591      114.67355     -20255.917      47.276734      48.187318      126.71407    
     27300  -20363.889      110.9844      -20252.905      47.267884      48.18206       126.76984    
     27400  -20357.711      110.26445     -20247.447      47.26098       48.177585      126.82561    
     27500  -20354.083      115.79184     -20238.291      47.254025      48.172607      126.88138    
     27600  -20347.899      116.55296     -20231.346      47.246499      48.166994      126.93715    
     27700  -20342.093      114.37269     -20227.721      47.240117      48.162174      126.99293    
     27800  -20338.009      113.75281     -20224.256      47.233052      48.156807      127.0487     
     27900  -20332.195      112.75535     -20219.439      47.225991      48.151873      127.10447    
     28000  -20328.615      115.23798     -20213.377      47.218509      48.147323      127.16024    
     28100  -20319.987      112.81749     -20207.17       47.210945      48.142615      127.21601    
     28200  -20314.633      114.57991     -20200.053      47.203606      48.137796      127.27179    
     28300  -20304.851      113.72751     -20191.123      47.196135      48.132514      127.32756    
     28400  -20302.143      115.11199     -20187.031      47.188805      48.127289      127.38333    
     28500  -20298.934      113.05908     -20185.875      47.181912      48.122195      127.4391     
     28600  -20295.274      112.92888     -20182.345      47.174537      48.11674       127.49487    
     28700  -20291.932      114.45636     -20177.476      47.167549      48.111677      127.55065    
     28800  -20285.847      115.60087     -20170.246      47.160244      48.106713      127.60642    
     28900  -20275.844      114.82129     -20161.022      47.153264      48.102201      127.66219    
     29000  -20270.392      114.22275     -20156.17       47.146137      48.097334      127.71796    
     29100  -20263.769      110.70797     -20153.061      47.138876      48.092436      127.77373    
     29200  -20259.084      111.23053     -20147.854      47.131821      48.088383      127.82951    
     29300  -20256.934      114.39941     -20142.535      47.125108      48.083693      127.88528    
     29400  -20251.462      113.6045      -20137.858      47.118318      48.078615      127.94105    
     29500  -20249.157      112.88556     -20136.272      47.111766      48.074022      127.99682    
     29600  -20241.008      109.59282     -20131.415      47.104308      48.0683        128.05259    
     29700  -20234.209      112.3583      -20121.85       47.097539      48.062842      128.10837    
     29800  -20228.542      113.35653     -20115.185      47.090735      48.05719       128.16414    
     29900  -20220.968      112.50122     -20108.466      47.083282      48.051196      128.21991    
     30000  -20215.917      114.23282     -20101.685      47.077327      48.046545      128.27568    
     30100  -20208.943      113.70601     -20095.237      47.070103      48.040654      128.33145    
     30200  -20202.538      112.2577      -20090.28       47.063514      48.035461      128.38723    
     30300  -20200.376      112.89496     -20087.481      47.05723       48.030389      128.443      
     30400  -20194.13       110.72275     -20083.407      47.050423      48.024035      128.49877    
     30500  -20190.372      114.1055      -20076.266      47.044794      48.018763      128.55454    
     30600  -20180.158      113.85328     -20066.305      47.037919      48.012925      128.61032    
     30700  -20172.879      112.33315     -20060.546      47.031042      48.007896      128.66609    
     30800  -20171.012      113.53734     -20057.474      47.024238      48.002992      128.72186    
     30900  -20166.825      112.7665      -20054.058      47.016474      47.9979        128.77763    
     31000  -20160.742      112.41087     -20048.331      47.008394      47.992823      128.8334     
     31100  -20153.247      111.7074      -20041.539      47.00051       47.98768       128.88918    
     31200  -20148.637      114.25137     -20034.386      46.993599      47.982316      128.94495    
     31300  -20141.459      114.47501     -20026.984      46.987008      47.976428      129.00072    
     31400  -20133.367      115.24394     -20018.123      46.980532      47.970365      129.05649    
     31500  -20128.128      115.20825     -20012.919      46.973694      47.964128      129.11226    
     31600  -20124.353      113.07585     -20011.277      46.966932      47.958815      129.16804    
     31700  -20120.88       113.80771     -20007.072      46.958508      47.953857      129.22381    
     31800  -20114.351      113.06502     -20001.286      46.95062       47.949845      129.27958    
     31900  -20109.889      116.26776     -19993.621      46.942866      47.945858      129.33535    
     32000  -20099.76       115.72649     -19984.034      46.935309      47.941075      129.39112    
     32100  -20093.324      113.89221     -19979.432      46.929539      47.935783      129.4469     
     32200  -20089.847      112.53096     -19977.316      46.92316       47.928058      129.50267    
     32300  -20083.463      111.33358     -19972.129      46.917121      47.920402      129.55844    
     32400  -20075.872      110.14745     -19965.725      46.910847      47.913892      129.61421    
     32500  -20071.959      114.4995      -19957.459      46.902367      47.906836      129.66998    
     32600  -20063.918      114.35637     -19949.562      46.894963      47.901814      129.72576    
     32700  -20058.914      114.63108     -19944.283      46.886995      47.896088      129.78153    
     32800  -20056.386      112.88785     -19943.498      46.879377      47.89007       129.8373     
     32900  -20049.021      110.35107     -19938.67       46.872294      47.88381       129.89307    
     33000  -20043.352      112.48255     -19930.869      46.864688      47.876567      129.94884    
     33100  -20033.708      111.97322     -19921.734      46.858054      47.871035      130.00462    
     33200  -20031.33       115.95122     -19915.378      46.850475      47.864646      130.06039    
     33300  -20026.59       115.86314     -19910.727      46.842918      47.858518      130.11616    
     33400  -20018.879      112.76929     -19906.109      46.835626      47.852662      130.17193    
     33500  -20012.462      111.88474     -19900.577      46.827822      47.846193      130.2277     
     33600  -20008.21       113.63982     -19894.57       46.821306      47.840903      130.28348    
     33700  -20002.698      114.93481     -19887.763      46.813103      47.834295      130.33925    
     33800  -19993.696      113.53056     -19880.165      46.805501      47.828416      130.39502    
     33900  -19985.424      113.18417     -19872.24       46.798107      47.822687      130.45079    
     34000  -19982.512      116.45833     -19866.054      46.789929      47.815608      130.50656    
     34100  -19978.751      114.52285     -19864.228      46.783231      47.809707      130.56234    
     34200  -19974.224      113.80802     -19860.416      46.775312      47.802545      130.61811    
     34300  -19966.276      112.32612     -19853.95       46.767744      47.796003      130.67388    
     34400  -19962.309      117.78446     -19844.524      46.759631      47.789207      130.72965    
     34500  -19951.067      113.91931     -19837.147      46.751024      47.781601      130.78542    
     34600  -19947.742      115.46526     -19832.277      46.7439        47.775045      130.8412     
     34700  -19944.379      116.37381     -19828.005      46.735861      47.767103      130.89697    
     34800  -19936.036      112.83131     -19823.205      46.728342      47.759935      130.95274    
     34900  -19929.984      113.55121     -19816.433      46.721309      47.753994      131.00851    
     35000  -19919.495      113.73538     -19805.759      46.712518      47.747433      131.06428    
     35100  -19914.791      115.93801     -19798.853      46.703828      47.741877      131.12006    
     35200  -19910.799      114.79459     -19796.005      46.694585      47.736675      131.17583    
     35300  -19906.714      114.68725     -19792.027      46.685165      47.730204      131.2316     
     35400  -19898.627      112.85277     -19785.774      46.677414      47.723583      131.28737    
     35500  -19892.514      114.23831     -19778.276      46.668927      47.715293      131.34314    
     35600  -19886.81       116.05329     -19770.756      46.661163      47.708126      131.39892    
     35700  -19878.166      116.89418     -19761.271      46.653032      47.70128       131.45469    
     35800  -19871.82       116.01733     -19755.803      46.644478      47.694494      131.51046    
     35900  -19867.084      113.32812     -19753.756      46.63592       47.687849      131.56623    
     36000  -19861.112      112.02729     -19749.085      46.626585      47.680443      131.622      
     36100  -19855.992      112.77975     -19743.212      46.618421      47.673349      131.67778    
     36200  -19850.211      114.48605     -19735.725      46.610013      47.665465      131.73355    
     36300  -19841.418      115.27061     -19726.147      46.602188      47.657441      131.78932    
     36400  -19835.545      116.10479     -19719.44       46.59422       47.649786      131.84509    
     36500  -19831.771      114.44254     -19717.328      46.585586      47.642603      131.90087    
     36600  -19826.912      113.21461     -19713.698      46.57656       47.63559       131.95664    
     36700  -19818.932      112.11458     -19706.817      46.567348      47.628043      132.01241    
     36800  -19812.236      113.76264     -19698.473      46.558603      47.620692      132.06818    
     36900  -19804.461      113.63981     -19690.821      46.549959      47.612791      132.12395    
     37000  -19799.412      117.19129     -19682.22       46.540323      47.603633      132.17973    
     37100  -19791.83       116.82567     -19675.004      46.532393      47.596344      132.2355     
     37200  -19787.079      113.92003     -19673.159      46.523195      47.589033      132.29127    
     37300  -19782.698      113.05281     -19669.646      46.512669      47.58143       132.34704    
     37400  -19776.163      112.42069     -19663.742      46.503012      47.575875      132.40281    
     37500  -19770.238      114.95514     -19655.283      46.49213       47.568755      132.45859    
     37600  -19760.635      114.82256     -19645.812      46.482575      47.561454      132.51436    
     37700  -19755.716      116.25707     -19639.459      46.474046      47.553284      132.57013    
     37800  -19751.041      115.97639     -19635.065      46.465433      47.543649      132.6259     
     37900  -19742.592      112.58383     -19630.008      46.458004      47.534529      132.68167    
     38000  -19737.818      112.94243     -19624.876      46.449715      47.525105      132.73745    
     38100  -19732.111      113.2406      -19618.871      46.440556      47.516379      132.79322    
     38200  -19725.388      114.21911     -19611.169      46.430791      47.509133      132.84899    
     38300  -19715.16       112.37302     -19602.787      46.419705      47.501928      132.90476    
     38400  -19712.168      114.89774     -19597.27       46.409166      47.494677      132.96053    
     38500  -19708.169      112.80798     -19595.361      46.399228      47.486255      133.01631    
     38600  -19701.548      111.57502     -19589.973      46.390431      47.477206      133.07208    
     38700  -19694.257      112.82137     -19581.435      46.38199       47.467569      133.12785    
     38800  -19686.665      113.56892     -19573.096      46.373706      47.45773       133.18362    
     38900  -19679.132      112.57186     -19566.56       46.364605      47.447878      133.23939    
     39000  -19675.982      115.17211     -19560.81       46.354503      47.438922      133.29517    
     39100  -19668.47       112.31875     -19556.151      46.344487      47.431401      133.35094    
     39200  -19663.463      109.04047     -19554.422      46.333529      47.423666      133.40671    
     39300  -19659.259      110.57966     -19548.679      46.322612      47.416416      133.46248    
     39400  -19649.337      109.72639     -19539.611      46.312789      47.409519      133.51825    
     39500  -19643.822      112.68852     -19531.134      46.301809      47.400104      133.57403    
     39600  -19638.682      115.9431      -19522.739      46.292718      47.391063      133.6298     
     39700  -19630.952      115.0792      -19515.872      46.283347      47.381319      133.68557    
     39800  -19627.045      115.1359      -19511.909      46.27248       47.37108       133.74134    
     39900  -19618.979      109.99248     -19508.986      46.262463      47.362985      133.79711    
     40000  -19613.489      112.12171     -19501.367      46.251256      47.354275      133.85289    
     40100  -19604.434      112.38078     -19492.053      46.240434      47.346024      133.90866    
     40200  -19599.716      114.97087     -19484.745      46.230459      47.336989      133.96443    
     40300  -19591.027      112.52156     -19478.505      46.220809      47.326615      134.0202     
     40400  -19585.084      111.90569     -19473.178      46.212292      47.316504      134.07597    
     40500  -19580.033      110.20118     -19469.832      46.202668      47.30624       134.13175    
     40600  -19576.904      112.13979     -19464.764      46.192982      47.29701       134.18752    
     40700  -19568.203      113.49612     -19454.707      46.182834      47.288603      134.24329    
     40800  -19559.508      114.11597     -19445.392      46.171717      47.279963      134.29906    
     40900  -19552.221      112.65118     -19439.569      46.16069       47.271153      134.35483    
     41000  -19547.38       111.50369     -19435.876      46.149118      47.261055      134.41061    
     41100  -19542.587      111.35916     -19431.227      46.138988      47.251019      134.46638    
     41200  -19534.303      112.11768     -19422.186      46.129051      47.240864      134.52215    
     41300  -19527.339      115.94703     -19411.392      46.117926      47.230167      134.57792    
     41400  -19520.918      115.03253     -19405.886      46.107783      47.221496      134.63369    
     41500  -19515.683      112.86049     -19402.822      46.09651       47.212159      134.68947    
     41600  -19511.949      114.0313      -19397.917      46.085113      47.202993      134.74524    
     41700  -19505.65       114.45346     -19391.197      46.074548      47.194631      134.80101    
     41800  -19496.451      114.50483     -19381.946      46.062923      47.18514       134.85678    
     41900  -19488.057      116.09277     -19371.964      46.051919      47.175774      134.91256    
     42000  -19481.938      114.61649     -19367.322      46.041675      47.166273      134.96833    
     42100  -19475.657      111.77874     -19363.878      46.03092       47.155075      135.0241     
     42200  -19471.841      113.88937     -19357.952      46.021409      47.144643      135.07987    
     42300  -19464.239      112.33631     -19351.903      46.011474      47.134334      135.13564    
     42400  -19457.048      112.43612     -19344.612      45.99982       47.123437      135.19142    
     42500  -19449.723      115.23992     -19334.483      45.989574      47.114363      135.24719    
     42600  -19442.376      115.41223     -19326.964      45.977891      47.104196      135.30296    
     42700  -19437.857      113.32649     -19324.531      45.96693       47.094083      135.35873    
     42800  -19433.193      113.64812     -19319.545      45.956556      47.08509       135.4145     
     42900  -19424.788      112.30991     -19312.478      45.944347      47.075001      135.47028    
     43000  -19417.446      114.05997     -19303.386      45.93323       47.066481      135.52605    
     43100  -19409.338      114.61274     -19294.726      45.921083      47.057375      135.58182    
     43200  -19401.966      113.62392     -19288.342      45.908859      47.047406      135.63759    
     43300  -19398.533      112.32037     -19286.213      45.898432      47.038009      135.69336    
     43400  -19394.081      111.79065     -19282.29       45.887613      47.02731       135.74914    
     43500  -19387.16       110.91992     -19276.24       45.877127      47.0172        135.80491    
     43600  -19380.311      114.18444     -19266.127      45.866359      47.00752       135.86068    
     43700  -19374.331      116.57189     -19257.759      45.855044      46.998166      135.91645    
     43800  -19367.164      114.86626     -19252.297      45.843205      46.989057      135.97222    
     43900  -19359.956      112.22393     -19247.732      45.830609      46.9792        136.028      
     44000  -19356.293      114.25389     -19242.04       45.819136      46.969072      136.08377    
     44100  -19347.434      111.72771     -19235.706      45.808144      46.958223      136.13954    
     44200  -19340.081      112.63982     -19227.441      45.796797      46.947395      136.19531    
     44300  -19331.441      113.11436     -19218.326      45.785884      46.93764       136.25108    
     44400  -19326.803      115.62511     -19211.178      45.774614      46.927339      136.30686    
     44500  -19321.116      113.92718     -19207.189      45.764472      46.917077      136.36263    
     44600  -19314.211      110.93098     -19203.28       45.753942      46.905716      136.4184     
     44700  -19308.609      112.67226     -19195.937      45.744466      46.895241      136.47417    
     44800  -19300.211      115.78934     -19184.422      45.734623      46.885264      136.52994    
     44900  -19290.139      113.11003     -19177.029      45.72203       46.87488       136.58572    
     45000  -19287.826      114.4487      -19173.377      45.710413      46.867146      136.64149    
     45100  -19283.882      114.49816     -19169.384      45.698291      46.858455      136.69726    
     45200  -19276.57       113.23046     -19163.34       45.687009      46.848428      136.75303    
     45300  -19270.352      115.48217     -19154.87       45.677124      46.83768       136.8088     
     45400  -19260.354      115.95805     -19144.396      45.666472      46.825888      136.86458    
     45500  -19253.028      115.57276     -19137.455      45.656117      46.815099      136.92035    
     45600  -19249.776      113.81153     -19135.965      45.644918      46.804406      136.97612    
     45700  -19245.314      114.6298      -19130.685      45.63367       46.794396      137.03189    
     45800  -19237.427      114.4179      -19123.009      45.622339      46.784608      137.08766    
     45900  -19230.181      116.22478     -19113.956      45.611637      46.774737      137.14344    
     46000  -19221.178      114.81562     -19106.363      45.601738      46.765082      137.19921    
     46100  -19215.429      112.04247     -19103.387      45.591174      46.754321      137.25498    
     46200  -19213.073      113.72352     -19099.349      45.580844      46.743936      137.31075    
     46300  -19204.397      113.09426     -19091.303      45.570714      46.73468       137.36652    
     46400  -19196.445      113.92773     -19082.518      45.558967      46.724501      137.4223     
     46500  -19188.165      112.93602     -19075.229      45.548918      46.715246      137.47807    
     46600  -19182.902      113.97788     -19068.924      45.538781      46.704928      137.53384    
     46700  -19173.649      111.15671     -19062.492      45.528374      46.694083      137.58961    
     46800  -19170.098      113.81418     -19056.284      45.519088      46.684902      137.64538    
     46900  -19164.719      114.30643     -19050.413      45.506649      46.675014      137.70116    
     47000  -19157.641      112.90217     -19044.739      45.495004      46.66689       137.75693    
     47100  -19151.284      111.33602     -19039.948      45.484097      46.659147      137.8127     
     47200  -19144.952      111.77957     -19033.172      45.471895      46.648772      137.86847    
     47300  -19136.285      114.26858     -19022.016      45.462894      46.639716      137.92425    
     47400  -19131.302      117.24401     -19014.058      45.452777      46.629815      137.98002    
     47500  -19124.336      115.24806     -19009.088      45.44106       46.619479      138.03579    
     47600  -19117.237      111.97033     -19005.266      45.43064       46.610772      138.09156    
     47700  -19112.267      113.43348     -18998.833      45.419142      46.600906      138.14733    
     47800  -19105.81       114.68718     -18991.123      45.408963      46.591823      138.20311    
     47900  -19098.839      115.90909     -18982.93       45.399333      46.582735      138.25888    
     48000  -19088.365      113.51565     -18974.849      45.38885       46.572697      138.31465    
     48100  -19081.074      113.93273     -18967.141      45.379651      46.563432      138.37042    
     48200  -19075.885      113.87448     -18962.01       45.369557      46.553885      138.42619    
     48300  -19070.234      111.45959     -18958.774      45.359521      46.544388      138.48197    
     48400  -19065.484      112.56892     -18952.915      45.349691      46.535526      138.53774    
     48500  -19056.666      112.64382     -18944.022      45.338919      46.526528      138.59351    
     48600  -19048.594      114.73814     -18933.855      45.328797      46.51819       138.64928    
     48700  -19041.138      113.91586     -18927.222      45.318832      46.509582      138.70505    
     48800  -19037.127      113.82486     -18923.302      45.308844      46.500618      138.76083    
     48900  -19029.282      111.85179     -18917.43       45.29908       46.491896      138.8166     
     49000  -19021.4        110.82548     -18910.574      45.288732      46.482851      138.87237    
     49100  -19017.518      114.92591     -18902.592      45.27838       46.474057      138.92814    
     49200  -19009.355      114.98544     -18894.369      45.268559      46.46604       138.98391    
     49300  -19003.347      114.44545     -18888.902      45.258162      46.457495      139.03969    
     49400  -18998.296      112.28703     -18886.009      45.248207      46.449062      139.09546    
     49500  -18992.648      113.36725     -18879.28       45.238922      46.441391      139.15123    
     49600  -18984.056      114.37203     -18869.684      45.228762      46.43276       139.207      
     49700  -18974.697      113.7705      -18860.927      45.218864      46.423529      139.26277    
     49800  -18970.189      115.36255     -18854.826      45.209974      46.415022      139.31855    
     49900  -18963.02       113.70636     -18849.313      45.200552      46.405741      139.37432    
     50000  -18957.834      113.68327     -18844.151      45.191404      46.39693       139.43009    
     50100  -18949.897      112.20821     -18837.688      45.182772      46.38804       139.48586    
     50200  -18942.394      114.13844     -18828.256      45.173439      46.378768      139.54163    
     50300  -18936.889      118.47288     -18818.416      45.165568      46.370969      139.59741    
     50400  -18928.775      115.1712      -18813.604      45.156148      46.362957      139.65318    
     50500  -18923.414      113.72358     -18809.691      45.146262      46.355269      139.70895    
     50600  -18914.781      111.50257     -18803.278      45.137548      46.348686      139.76472    
     50700  -18910.974      114.56806     -18796.405      45.128345      46.340836      139.82049    
     50800  -18903.005      113.25597     -18789.749      45.119583      46.332888      139.87627    
     50900  -18897.479      112.82644     -18784.652      45.111574      46.325134      139.93204    
     51000  -18891.167      111.23216     -18779.935      45.102273      46.316069      139.98781    
     51100  -18883.958      112.13414     -18771.824      45.094107      46.308061      140.04358    
     51200  -18873.481      112.91402     -18760.567      45.084816      46.299721      140.09935    
     51300  -18865.875      113.32994     -18752.545      45.074633      46.291246      140.15513    
     51400  -18860.735      113.98946     -18746.746      45.066612      46.28508       140.2109     
     51500  -18854.195      110.94868     -18743.246      45.057209      46.277719      140.26667    
     51600  -18849.398      112.38024     -18737.018      45.047983      46.270007      140.32244    
     51700  -18841.544      112.20706     -18729.337      45.04073       46.263088      140.37821    
     51800  -18832.753      112.26188     -18720.491      45.032026      46.254278      140.43399    
     51900  -18824.668      113.82979     -18710.839      45.024917      46.246455      140.48976    
     52000  -18819.512      117.78456     -18701.727      45.017542      46.238599      140.54553    
     52100  -18812.582      114.24062     -18698.342      45.008814      46.229633      140.6013     
     52200  -18807.889      113.13938     -18694.749      45.001908      46.222313      140.65707    
     52300  -18800.859      111.95339     -18688.906      44.994462      46.214455      140.71285    
     52400  -18792.578      110.84993     -18681.728      44.986103      46.206413      140.76862    
     52500  -18787.051      114.27506     -18672.776      44.978758      46.199124      140.82439    
     52600  -18779.28       116.06116     -18663.218      44.969862      46.191135      140.88016    
     52700  -18770.402      113.77486     -18656.627      44.961687      46.18431       140.93593    
     52800  -18767.846      113.36574     -18654.48       44.954278      46.177886      140.99171    
     52900  -18763.517      114.78568     -18648.731      44.94682       46.170991      141.04748    
     53000  -18756.606      115.05307     -18641.552      44.939619      46.164278      141.10325    
     53100  -18745.804      113.5468      -18632.258      44.931349      46.156816      141.15902    
     53200  -18739.057      117.37951     -18621.678      44.923825      46.149865      141.2148     
     53300  -18731.549      115.28446     -18616.265      44.916167      46.143065      141.27057    
     53400  -18725.864      114.07083     -18611.794      44.908094      46.135725      141.32634    
     53500  -18721.14       115.49258     -18605.647      44.901193      46.129405      141.38211    
     53600  -18712.837      113.19732     -18599.64       44.893384      46.122643      141.43788    
     53700  -18706.92       113.34085     -18593.579      44.886018      46.116022      141.49366    
     53800  -18701.194      113.32097     -18587.873      44.87939       46.109819      141.54943    
     53900  -18695.317      114.04479     -18581.272      44.87165       46.102492      141.6052     
     54000  -18685.1        113.39058     -18571.71       44.864036      46.095569      141.66097    
     54100  -18677.222      115.30794     -18561.914      44.856838      46.088983      141.71674    
     54200  -18671.768      116.14518     -18555.623      44.848898      46.081541      141.77252    
     54300  -18664.385      111.96325     -18552.422      44.842555      46.075064      141.82829    
     54400  -18659.159      113.27023     -18545.889      44.835778      46.068019      141.88406    
     54500  -18651.063      113.81347     -18537.25       44.827984      46.060673      141.93983    
     54600  -18641.737      113.57045     -18528.167      44.822085      46.054851      141.9956     
     54700  -18634.8        112.99066     -18521.809      44.814989      46.048576      142.05138    
     54800  -18631.569      112.06235     -18519.507      44.807435      46.042244      142.10715    
     54900  -18624.634      112.5067      -18512.127      44.800751      46.037338      142.16292    
     55000  -18617.757      115.41728     -18502.339      44.792807      46.031569      142.21869    
     55100  -18608.804      115.21339     -18493.59       44.785198      46.026088      142.27446    
     55200  -18604.531      117.20251     -18487.329      44.778643      46.021097      142.33024    
     55300  -18597.622      112.26289     -18485.359      44.77109       46.014917      142.38601    
     55400  -18588.382      109.99398     -18478.388      44.764317      46.008861      142.44178    
     55500  -18582.093      113.67313     -18468.42       44.757461      46.002248      142.49755    
     55600  -18574.492      115.75413     -18458.738      44.751001      45.995792      142.55332    
     55700  -18566.208      113.94194     -18452.266      44.744719      45.989612      142.6091     
     55800  -18563.122      113.52277     -18449.599      44.737797      45.983312      142.66487    
     55900  -18556.053      113.62534     -18442.427      44.730714      45.977355      142.72064    
     56000  -18546.935      113.11716     -18433.817      44.723582      45.9715        142.77641    
     56100  -18539.036      114.14884     -18424.887      44.716413      45.965873      142.83218    
     56200  -18531.851      115.377       -18416.474      44.710183      45.96055       142.88796    
     56300  -18526.352      115.37586     -18410.976      44.703733      45.955107      142.94373    
     56400  -18519.622      112.20735     -18407.415      44.697414      45.94979       142.9995     
     56500  -18512.344      111.33548     -18401.009      44.690862      45.944445      143.05527    
     56600  -18507.084      113.89896     -18393.185      44.68425       45.938444      143.11104    
     56700  -18498.441      113.78694     -18384.654      44.678675      45.932695      143.16682    
     56800  -18491.127      114.42973     -18376.697      44.672891      45.926735      143.22259    
     56900  -18484.463      113.73272     -18370.73       44.665929      45.920237      143.27836    
     57000  -18479.009      113.00211     -18366.007      44.659875      45.914209      143.33413    
     57100  -18471.539      111.42162     -18360.117      44.653707      45.908183      143.3899     
     57200  -18463.754      112.24369     -18351.51       44.647364      45.90212       143.44568    
     57300  -18456.901      117.8977      -18339.003      44.641398      45.896296      143.50145    
     57400  -18447.942      116.57795     -18331.364      44.635262      45.890394      143.55722    
     57500  -18441.289      114.24304     -18327.046      44.629193      45.884451      143.61299    
     57600  -18435.386      113.64742     -18321.738      44.623786      45.87875       143.66876    
     57700  -18430.322      114.79164     -18315.53       44.618011      45.87258       143.72454    
     57800  -18422.104      113.15189     -18308.953      44.61309       45.866919      143.78031    
     57900  -18416.254      113.30949     -18302.944      44.607379      45.861121      143.83608    
     58000  -18411.621      112.16906     -18299.452      44.601196      45.855406      143.89185    
     58100  -18402.731      111.21037     -18291.52       44.5954        45.850315      143.94762    
     58200  -18394.355      114.18412     -18280.171      44.588384      45.844837      144.0034     
     58300  -18384.964      113.79522     -18271.169      44.581807      45.840434      144.05917    
     58400  -18378.159      113.56246     -18264.596      44.574858      45.835831      144.11494    
     58500  -18372.82       113.00612     -18259.813      44.568097      45.83116       144.17071    
     58600  -18368.163      113.97558     -18254.188      44.561776      45.826151      144.22649    
     58700  -18359.619      113.38796     -18246.231      44.55536       45.820933      144.28226    
     58800  -18351.513      113.77153     -18237.742      44.550051      45.816076      144.33803    
     58900  -18341.712      111.61099     -18230.101      44.543924      45.810347      144.3938     
     59000  -18336.938      113.76239     -18223.176      44.538789      45.805105      144.44957    
     59100  -18331.385      113.07838     -18218.307      44.53332       45.799278      144.50535    
     59200  -18325.127      112.89807     -18212.229      44.527189      45.792801      144.56112    
     59300  -18315.527      112.45462     -18203.073      44.522704      45.787476      144.61689    
     59400  -18308.733      118.64708     -18190.086      44.516418      45.780999      144.67266    
     59500  -18299.217      116.11896     -18183.098      44.510727      45.775157      144.72843    
     59600  -18291.658      112.83098     -18178.827      44.506131      45.770014      144.78421    
     59700  -18286.372      112.8495      -18173.523      44.500006      45.763725      144.83998    
     59800  -18280.812      113.75051     -18167.062      44.495156      45.758718      144.89575    
     59900  -18274.913      114.33209     -18160.58       44.48978       45.753317      144.95152    
     60000  -18266.787      110.84164     -18155.946      44.483648      45.74712       145.00729    
     60100  -18262.752      112.35975     -18150.392      44.479396      45.742439      145.06307    
     60200  -18252.136      112.90861     -18139.228      44.472067      45.736491      145.11884    
     60300  -18244.114      116.59934     -18127.515      44.46586       45.731711      145.17461    
     60400  -18231.795      111.24097     -18120.554      44.460591      45.727767      145.23038    
     60500  -18228.476      112.53705     -18115.939      44.453341      45.722194      145.28615    
     60600  -18221.867      112.68184     -18109.186      44.448956      45.718332      145.34193    
     60700  -18214.619      113.49348     -18101.125      44.442697      45.713231      145.3977     
     60800  -18207.948      116.30215     -18091.646      44.436195      45.708409      145.45347    
     60900  -18197.579      116.68361     -18080.895      44.430654      45.704334      145.50924    
     61000  -18190.199      114.71172     -18075.488      44.423216      45.699077      145.56501    
     61100  -18183.422      112.64066     -18070.781      44.418699      45.695228      145.62079    
     61200  -18176.366      111.91876     -18064.447      44.412737      45.689238      145.67656    
     61300  -18170.176      113.12162     -18057.055      44.407235      45.683066      145.73233    
     61400  -18162.648      112.91498     -18049.733      44.403417      45.677821      145.7881     
     61500  -18158.933      113.86188     -18045.071      44.39675       45.670474      145.84387    
     61600  -18149.58       111.81549     -18037.765      44.393206      45.6656        145.89965    
     61700  -18140.666      113.75674     -18026.909      44.387737      45.660164      145.95542    
     61800  -18130.268      115.13374     -18015.134      44.381443      45.654498      146.01119    
     61900  -18123.102      116.18844     -18006.914      44.377405      45.650786      146.06696    
     62000  -18116.579      115.30521     -18001.274      44.370406      45.645073      146.12273    
     62100  -18110.073      114.39652     -17995.676      44.365095      45.640704      146.17851    
     62200  -18103.412      113.52339     -17989.889      44.359385      45.636187      146.23428    
     62300  -18095.307      112.08333     -17983.224      44.352815      45.630952      146.29005    
     62400  -18087.381      112.37731     -17975.004      44.347403      45.62633       146.34582    
     62500  -18079.062      114.83388     -17964.228      44.341056      45.620928      146.40159    
     62600  -18067.348      114.91092     -17952.437      44.335061      45.616024      146.45737    
     62700  -18060.542      114.16124     -17946.381      44.328703      45.611338      146.51314    
     62800  -18055.79       114.28807     -17941.502      44.321949      45.606716      146.56891    
     62900  -18049.399      114.53328     -17934.866      44.31623       45.602741      146.62468    
     63000  -18039.574      111.57706     -17927.997      44.309768      45.59769       146.68045    
     63100  -18033.79       112.65349     -17921.137      44.304985      45.592842      146.73623    
     63200  -18025.287      110.58649     -17914.7        44.299499      45.587118      146.792      
     63300  -18021.19       111.99296     -17909.197      44.293711      45.581398      146.84777    
     63400  -18013.257      113.25214     -17900.005      44.289334      45.576639      146.90354    
     63500  -18001.477      114.51287     -17886.965      44.28273       45.570109      146.95931    
     63600  -17992.928      116.34153     -17876.586      44.278092      45.5649        147.01509    
     63700  -17986.627      116.89337     -17869.733      44.272933      45.559437      147.07086    
     63800  -17978.132      114.77034     -17863.362      44.266725      45.553902      147.12663    
     63900  -17972.411      116.37953     -17856.031      44.261479      45.549855      147.1824     
     64000  -17963.346      114.36529     -17848.981      44.254183      45.545028      147.23818    
     64100  -17953.938      112.55908     -17841.379      44.248235      45.54074       147.29395    
     64200  -17946.767      114.219       -17832.548      44.242243      45.535766      147.34972    
     64300  -17936.369      112.36075     -17824.009      44.236124      45.530237      147.40549    
     64400  -17928.462      113.24077     -17815.222      44.230668      45.525335      147.46126    
     64500  -17923.296      116.0869      -17807.209      44.224238      45.519788      147.51704    
     64600  -17913.517      113.83207     -17799.685      44.218927      45.514982      147.57281    
     64700  -17905.604      113.00557     -17792.598      44.213351      45.509738      147.62858    
     64800  -17899.408      115.81638     -17783.592      44.207615      45.504076      147.68435    
     64900  -17887.482      112.47567     -17775.007      44.203164      45.499478      147.74012    
     65000  -17878.891      111.31612     -17767.575      44.196776      45.493775      147.7959     
     65100  -17871.632      110.47405     -17761.158      44.191473      45.489221      147.85167    
     65200  -17867.397      111.74564     -17755.651      44.185249      45.484257      147.90744    
     65300  -17859.754      111.67644     -17748.078      44.178138      45.478776      147.96321    
     65400  -17847.747      114.9191      -17732.828      44.172989      45.474322      148.01898    
     65500  -17836.905      115.07405     -17721.831      44.166077      45.468386      148.07476    
     65600  -17827.856      113.64255     -17714.214      44.160508      45.463435      148.13053    
     65700  -17823.478      114.86972     -17708.608      44.154454      45.458238      148.1863     
     65800  -17815.082      114.63015     -17700.451      44.148195      45.452432      148.24207    
     65900  -17804.979      113.96378     -17691.015      44.143259      45.447115      148.29784    
     66000  -17796.249      111.62587     -17684.623      44.136697      45.440901      148.35362    
     66100  -17791.668      113.47493     -17678.193      44.131763      45.436177      148.40939    
     66200  -17780.28       112.05458     -17668.225      44.125542      45.430649      148.46516    
     66300  -17770.83       113.69034     -17657.14       44.119558      45.424961      148.52093    
     66400  -17762.853      115.93126     -17646.922      44.114911      45.419921      148.5767     
     66500  -17751.232      112.87685     -17638.355      44.107439      45.413439      148.63248    
     66600  -17744.715      115.29507     -17629.42       44.102568      45.409166      148.68825    
     66700  -17735.621      113.84522     -17621.776      44.094943      45.403474      148.74402    
     66800  -17727.939      115.79402     -17612.145      44.08846       45.398848      148.79979    
     66900  -17716.782      113.55789     -17603.224      44.082895      45.394645      148.85556    
     67000  -17708.161      112.79596     -17595.365      44.075111      45.388639      148.91134    
     67100  -17698.804      111.91324     -17586.891      44.07059       45.384241      148.96711    
     67200  -17691.731      111.90407     -17579.827      44.063189      45.37743       149.02288    
     67300  -17680.27       107.59242     -17572.677      44.058192      45.372211      149.07865    
     67400  -17672.669      111.69282     -17560.976      44.052019      45.36633       149.13442    
     67500  -17660.79       111.7416      -17549.048      44.045076      45.359986      149.1902     
     67600  -17653.107      115.16928     -17537.938      44.040583      45.355533      149.24597    
     67700  -17644.61       112.24777     -17532.362      44.032922      45.349235      149.30174    
     67800  -17634.921      111.58474     -17523.337      44.02759       45.344779      149.35751    
     67900  -17626.736      113.46881     -17513.267      44.020473      45.339149      149.41328    
     68000  -17615.691      113.06933     -17502.621      44.013252      45.333303      149.46906    
     68100  -17606.231      113.44215     -17492.789      44.008095      45.328596      149.52483    
     68200  -17598.025      112.27736     -17485.748      44.000448      45.322124      149.5806     
     68300  -17585.753      110.65931     -17475.094      43.995506      45.31772       149.63637    
     68400  -17580.746      115.64743     -17465.099      43.988184      45.312407      149.69214    
     68500  -17569.325      112.45801     -17456.867      43.981227      45.307858      149.74792    
     68600  -17559.546      112.68863     -17446.857      43.974706      45.303611      149.80369    
     68700  -17547.511      112.13726     -17435.374      43.966259      45.297733      149.85946    
     68800  -17544.242      118.37939     -17425.862      43.960486      45.293596      149.91523    
     68900  -17533.334      115.75006     -17417.584      43.9525        45.287751      149.971      
     69000  -17521.674      115.35809     -17406.316      43.946058      45.282637      150.02678    
     69100  -17510.714      115.25283     -17395.461      43.940327      45.277557      150.08255    
     69200  -17501.095      115.35272     -17385.742      43.93247       45.270684      150.13832    
     69300  -17490.252      115.2826      -17374.97       43.927901      45.265823      150.19409    
     69400  -17479.678      114.21883     -17365.46       43.920682      45.25862       150.24986    
     69500  -17470.72       114.85403     -17355.866      43.915106      45.252835      150.30564    
     69600  -17463.655      117.48        -17346.175      43.908976      45.247021      150.36141    
     69700  -17449.719      113.82685     -17335.892      43.901316      45.240338      150.41718    
     69800  -17439.28       113.6474      -17325.633      43.896431      45.235297      150.47295    
     69900  -17428.709      113.20607     -17315.503      43.889154      45.228177      150.52873    
     70000  -17419.986      115.43606     -17304.55       43.884011      45.222772      150.5845     
     70100  -17411.055      116.70631     -17294.348      43.877043      45.216785      150.64027    
     70200  -17399.312      114.65226     -17284.66       43.869515      45.210902      150.69604    
     70300  -17388.95       114.8485      -17274.101      43.863556      45.206194      150.75181    
     70400  -17380.646      117.37286     -17263.273      43.854966      45.199756      150.80759    
     70500  -17367.741      114.68436     -17253.057      43.84848       45.19521       150.86336    
     70600  -17358.239      114.62288     -17243.616      43.84067       45.19025       150.91913    
     70700  -17350.134      117.2174      -17232.917      43.831983      45.184988      150.9749     
     70800  -17336.657      115.05399     -17221.603      43.825593      45.18095       151.03067    
     70900  -17327.37       115.80921     -17211.561      43.816923      45.174673      151.08645    
     71000  -17315.275      114.29504     -17200.98       43.810752      45.16964       151.14222    
     71100  -17306.974      116.43782     -17190.536      43.803945      45.163707      151.19799    
     71200  -17292.867      113.35265     -17179.515      43.796431      45.157         151.25376    
     71300  -17285.914      116.47117     -17169.442      43.791321      45.151813      151.30953    
     71400  -17274.317      115.46467     -17158.853      43.783601      45.144739      151.36531    
     71500  -17264.541      116.85595     -17147.685      43.777683      45.138863      151.42108    
     71600  -17253.124      116.12225     -17137.002      43.771445      45.13258       151.47685    
     71700  -17241.214      115.91529     -17125.298      43.763992      45.12531       151.53262    
     71800  -17232.274      118.64301     -17113.631      43.758848      45.119828      151.58839    
     71900  -17220.083      118.27625     -17101.806      43.750788      45.112601      151.64417    
     72000  -17207.435      117.26225     -17090.173      43.744341      45.106887      151.69994    
     72100  -17191.735      112.0104      -17079.725      43.73722       45.10096       151.75571    
     72200  -17187.689      117.8392      -17069.85       43.728851      45.094655      151.81148    
     72300  -17175.095      115.89665     -17059.199      43.722466      45.090028      151.86725    
     72400  -17165.415      118.79938     -17046.616      43.713299      45.08375       151.92303    
     72500  -17152.13       118.21442     -17033.915      43.705951      45.07862       151.9788     
     72600  -17142.259      119.68254     -17022.577      43.69883       45.073281      152.03457    
     72700  -17126.88       115.44383     -17011.436      43.690719      45.066945      152.09034    
     72800  -17117.252      117.13609     -17000.116      43.684599      45.061728      152.14611    
     72900  -17106.528      116.63646     -16989.892      43.676783      45.05518       152.20189    
     73000  -17094.796      116.92277     -16977.873      43.669721      45.049314      152.25766    
     73100  -17088.457      121.27759     -16967.18       43.662556      45.043399      152.31343    
     73200  -17071.069      116.61437     -16954.454      43.65455       45.036706      152.3692     
     73300  -17065.093      120.2247      -16944.869      43.647811      45.030907      152.42497    
     73400  -17046.93       115.35311     -16931.576      43.639993      45.024082      152.48075    
     73500  -17036.574      116.93897     -16919.635      43.632971      45.017755      152.53652    
     73600  -17024.992      115.72746     -16909.264      43.626128      45.011548      152.59229    
     73700  -17013.6        115.6859      -16897.914      43.618275      45.004797      152.64806    
     73800  -17004.209      117.92971     -16886.279      43.611503      44.998863      152.70383    
     73900  -16992.864      119.2477      -16873.616      43.603607      44.992321      152.75961    
     74000  -16979.568      117.02736     -16862.54       43.595922      44.986116      152.81538    
     74100  -16970.987      123.6909      -16847.296      43.588252      44.980072      152.87115    
     74200  -16955.915      121.1406      -16834.774      43.579979      44.973893      152.92692    
     74300  -16944.594      121.96608     -16822.628      43.572222      44.968234      152.98269    
     74400  -16929.336      119.50552     -16809.83       43.56408       44.96213       153.03847    
     74500  -16917.361      118.90263     -16798.458      43.556429      44.955998      153.09424    
     74600  -16907.656      121.35208     -16786.304      43.549253      44.949827      153.15001    
     74700  -16892.486      118.54845     -16773.938      43.541548      44.943029      153.20578    
     74800  -16882.598      122.70402     -16759.894      43.534214      44.936503      153.26155    
     74900  -16872.353      121.6048      -16750.748      43.526534      44.929925      153.31733    
     75000  -16856.944      118.90225     -16738.042      43.518396      44.923241      153.3731     
     75100  -16846.157      123.35244     -16722.805      43.510814      44.917118      153.42887    
     75200  -16829.884      122.15686     -16707.727      43.50282       44.910566      153.48464    
     75300  -16818.494      121.12512     -16697.369      43.49496       44.904167      153.54042    
     75400  -16807.285      124.7863      -16682.498      43.487146      44.897979      153.59619    
     75500  -16790.044      124.00508     -16666.039      43.478607      44.891444      153.65196    
     75600  -16778.164      127.36654     -16650.798      43.47065       44.885431      153.70773    
     75700  -16763.234      126.07952     -16637.154      43.462442      44.879213      153.7635     
     75800  -16749.73       126.33961     -16623.39       43.454075      44.872869      153.81928    
     75900  -16741.445      128.36361     -16613.081      43.446219      44.866643      153.87505    
     76000  -16726.517      129.11937     -16597.398      43.437827      44.859926      153.93082    
     76100  -16710.224      124.54932     -16585.675      43.429617      44.853217      153.98659    
     76200  -16701.815      127.45129     -16574.363      43.421937      44.846855      154.04236    
     76300  -16687.372      127.87269     -16559.499      43.413553      44.839878      154.09814    
     76400  -16672.995      130.68518     -16542.31       43.405703      44.833229      154.15391    
     76500  -16658.007      128.99835     -16529.009      43.397685      44.826539      154.20968    
     76600  -16650.052      132.15936     -16517.893      43.389252      44.819565      154.26545    
     76700  -16633.927      131.13402     -16502.793      43.381366      44.813077      154.32122    
     76800  -16619.402      132.23013     -16487.172      43.372797      44.806081      154.377      
     76900  -16602.647      127.94448     -16474.702      43.364628      44.799331      154.43277    
     77000  -16590.495      130.14489     -16460.35       43.356496      44.792692      154.48854    
     77100  -16576.823      130.13894     -16446.684      43.347831      44.785799      154.54431    
     77200  -16567.573      133.02398     -16434.549      43.339614      44.779377      154.60008    
     77300  -16546.251      132.70772     -16413.543      43.330769      44.772702      154.65586    
     77400  -16533.997      134.22435     -16399.772      43.322105      44.766255      154.71163    
     77500  -16520.181      136.87266     -16383.308      43.313538      44.759844      154.7674     
     77600  -16507.492      140.41992     -16367.072      43.304581      44.753029      154.82317    
     77700  -16497.324      140.43351     -16356.891      43.2961        44.746491      154.87894    
     77800  -16482.119      140.03943     -16342.079      43.28726       44.739614      154.93472    
     77900  -16488.52       160.16057     -16328.359      43.278614      44.732964      154.99049    
     78000  -16658.775      294.6798      -16364.096      43.26992       44.726553      155.04626    
     78100  -17198.755      604.95005     -16593.805      43.26013       44.721018      155.10203    
     78200  -18054.824      831.43607     -17223.388      43.259072      44.722481      155.1578     
     78300  -19015.352      795.45335     -18219.898      43.26714       44.729751      155.21358    
     78400  -19676.028      609.93676     -19066.092      43.277661      44.736546      155.26935    
     78500  -20192.687      485.33625     -19707.351      43.280329      44.739544      155.32512    
     78600  -20563.661      379.82906     -20183.832      43.288125      44.747402      155.38089    
     78700  -20779.479      273.18178     -20506.297      43.296401      44.754385      155.43666    
     78800  -20863.463      175.19158     -20688.272      43.306435      44.762862      155.49244    
     78900  -20865.572      100.10661     -20765.465      43.317681      44.772163      155.54821    
     79000  -20834.852      60.815544     -20774.036      43.326859      44.780262      155.60398    
     79100  -20809.09       66.811292     -20742.279      43.335966      44.790105      155.65975    
     79200  -20806.883      110.33878     -20696.544      43.341551      44.798476      155.71552    
     79300  -20793.001      131.09463     -20661.906      43.348327      44.807138      155.7713     
     79400  -20795.453      130.06241     -20665.39       43.354902      44.814839      155.82707    
     79500  -20811.802      113.8299      -20697.972      43.361797      44.820716      155.88284    
     79600  -20824.314      104.40526     -20719.909      43.371013      44.828963      155.93861    
     79700  -20829.029      106.99375     -20722.036      43.378515      44.838071      155.99438    
     79800  -20828.611      117.66589     -20710.945      43.388427      44.847546      156.05016    
     79900  -20824.558      117.8319      -20706.726      43.397943      44.854229      156.10593    
     80000  -20824.375      110.99544     -20713.379      43.404793      44.858912      156.1617     
     80100  -20819.517      105.5005      -20714.017      43.414226      44.864129      156.21747    
     80200  -20818.224      115.40728     -20702.816      43.425842      44.870427      156.27324    
     80300  -20815.975      121.16592     -20694.809      43.438764      44.877685      156.32902    
     80400  -20818.962      115.72096     -20703.241      43.453663      44.886591      156.38479    
     80500  -20825.655      107.26485     -20718.391      43.461576      44.890759      156.44056    
     80600  -20827.217      104.12453     -20723.093      43.470002      44.896507      156.49633    
     80700  -20825.092      112.83632     -20712.256      43.476912      44.902709      156.55211    
     80800  -20819.805      121.26858     -20698.536      43.485611      44.909436      156.60788    
     80900  -20816.865      118.40717     -20698.457      43.49499       44.916581      156.66365    
     81000  -20825.912      115.58691     -20710.325      43.503331      44.921244      156.71942    
     81100  -20829.418      107.90513     -20721.512      43.512198      44.925706      156.77519    
     81200  -20832.48       110.24464     -20722.236      43.521019      44.929819      156.83097    
     81300  -20828.417      112.35732     -20716.06       43.530777      44.93371       156.88674    
     81400  -20826.052      116.23248     -20709.82       43.541505      44.938164      156.94251    
     81500  -20822.727      112.20739     -20710.519      43.552567      44.941108      156.99828    
     81600  -20826.781      110.33773     -20716.444      43.563702      44.943458      157.05405    
     81700  -20829.021      110.47253     -20718.549      43.576716      44.944658      157.10983    
     81800  -20827.964      112.38631     -20715.578      43.587724      44.945803      157.1656     
     81900  -20827.198      114.84054     -20712.357      43.5994        44.950028      157.22137    
     82000  -20829.495      116.01825     -20713.477      43.6106        44.955031      157.27714    
     82100  -20827.463      111.4139      -20716.05       43.620011      44.960904      157.33291    
     82200  -20829.623      112.30063     -20717.323      43.629366      44.966914      157.38869    
     82300  -20828.451      113.19683     -20715.254      43.638113      44.972177      157.44446    
     82400  -20824.272      117.44332     -20706.829      43.646989      44.977474      157.50023    
     82500  -20828.585      118.18614     -20710.399      43.657042      44.983467      157.556      
     82600  -20826.449      107.63392     -20718.815      43.666391      44.988463      157.61177    
     82700  -20830.225      109.51838     -20720.707      43.6745        44.99445       157.66755    
     82800  -20829.224      115.05209     -20714.171      43.683497      45.001731      157.72332    
     82900  -20824.342      116.07405     -20708.268      43.690401      45.008321      157.77909    
     83000  -20827.462      117.7984      -20709.663      43.697848      45.014715      157.83486    
     83100  -20829.636      112.55545     -20717.08       43.706554      45.020362      157.89063    
     83200  -20833.53       110.86944     -20722.66       43.715175      45.023524      157.94641    
     83300  -20833.458      112.265       -20721.193      43.725489      45.026445      158.00218    
     83400  -20830.436      116.30601     -20714.13       43.736214      45.028323      158.05795    
     83500  -20824.455      115.73663     -20708.718      43.748694      45.031211      158.11372    
     83600  -20824.897      116.73119     -20708.166      43.760437      45.033869      158.16949    
     83700  -20828.288      114.47418     -20713.814      43.774496      45.038261      158.22527    
     83800  -20833.404      111.93253     -20721.472      43.786615      45.040078      158.28104    
     83900  -20837.228      113.16863     -20724.06       43.79952       45.041994      158.33681    
     84000  -20834.328      113.55413     -20720.773      43.813377      45.043682      158.39258    
     84100  -20829.675      114.96445     -20714.711      43.826135      45.043147      158.44835    
     84200  -20826.208      115.05223     -20711.155      43.840297      45.044623      158.50413    
     84300  -20826.965      114.36184     -20712.603      43.851604      45.04402       158.5599     
     84400  -20832.395      115.24015     -20717.155      43.865845      45.045216      158.61567    
     84500  -20832.576      111.87076     -20720.706      43.878655      45.044603      158.67144    
     84600  -20832.923      111.99419     -20720.929      43.892899      45.045692      158.72721    
     84700  -20828.748      111.35241     -20717.395      43.905336      45.04634       158.78299    
     84800  -20826.83       114.91255     -20711.918      43.917535      45.048824      158.83876    
     84900  -20826.69       116.58306     -20710.107      43.928676      45.052573      158.89453    
     85000  -20831.682      115.48307     -20716.199      43.937699      45.055303      158.9503     
     85100  -20831.633      107.97556     -20723.657      43.948147      45.059444      159.00607    
     85200  -20833.828      110.46581     -20723.362      43.957014      45.062229      159.06185    
     85300  -20830.292      114.4174      -20715.875      43.966776      45.065415      159.11762    
     85400  -20825.607      117.08233     -20708.525      43.976869      45.069358      159.17339    
     85500  -20825.015      117.44988     -20707.565      43.985631      45.074178      159.22916    
     85600  -20830.6        116.04728     -20714.553      43.991856      45.07973       159.28493    
     85700  -20832.993      109.49226     -20723.5        43.99704       45.085325      159.34071    
     85800  -20832.307      107.05999     -20725.247      44.00349       45.091659      159.39648    
     85900  -20833.224      114.8838      -20718.341      44.009097      45.096284      159.45225    
     86000  -20826.978      116.41245     -20710.566      44.01666       45.09995       159.50802    
     86100  -20825.327      116.29319     -20709.034      44.024851      45.102925      159.56379    
     86200  -20831.567      116.16733     -20715.4        44.033648      45.105721      159.61957    
     86300  -20835.115      111.81752     -20723.298      44.041781      45.109449      159.67534    
     86400  -20833.604      107.77526     -20725.829      44.04892       45.113529      159.73111    
     86500  -20831.614      111.44838     -20720.166      44.056611      45.118383      159.78688    
     86600  -20824.681      114.32522     -20710.356      44.063478      45.122883      159.84266    
     86700  -20821.591      117.28636     -20704.305      44.071818      45.127052      159.89843    
     86800  -20824.235      115.45305     -20708.782      44.08059       45.129747      159.9542     
     86900  -20829.263      109.47885     -20719.784      44.090422      45.13169       160.00997    
     87000  -20832.578      107.40276     -20725.175      44.100281      45.13503       160.06574    
     87100  -20831.492      110.16318     -20721.329      44.107778      45.137575      160.12152    
     87200  -20825.393      112.97006     -20712.423      44.116012      45.141046      160.17729    
     87300  -20821.252      116.35328     -20704.898      44.124258      45.144009      160.23306    
     87400  -20823.121      117.3933      -20705.727      44.132895      45.147783      160.28883    
     87500  -20823.72       109.71528     -20714.005      44.140441      45.152205      160.3446     
     87600  -20830.764      109.21159     -20721.553      44.148343      45.157321      160.40038    
     87700  -20833.692      111.49766     -20722.194      44.156633      45.161766      160.45615    
     87800  -20828.245      111.38604     -20716.859      44.164974      45.164983      160.51192    
     87900  -20827.956      117.76268     -20710.194      44.1746        45.168028      160.56769    
     88000  -20826.154      117.53864     -20708.615      44.18555       45.171134      160.62346    
     88100  -20829.436      114.59986     -20714.836      44.195249      45.172592      160.67924    
     88200  -20831.759      109.59179     -20722.167      44.205909      45.174306      160.73501    
     88300  -20829.458      107.80618     -20721.652      44.215629      45.176366      160.79078    
     88400  -20829.456      115.25204     -20714.204      44.224182      45.177942      160.84655    
     88500  -20824.356      116.96539     -20707.391      44.23352       45.18012       160.90232    
     88600  -20823.222      115.3418      -20707.88       44.243613      45.181251      160.9581     
     88700  -20828.012      112.7765      -20715.236      44.254389      45.18291       161.01387    
     88800  -20831.663      109.94986     -20721.713      44.264432      45.183401      161.06964    
     88900  -20831.133      109.53792     -20721.595      44.274997      45.184948      161.12541    
     89000  -20827.578      112.61546     -20714.963      44.284136      45.185392      161.18118    
     89100  -20823.261      116.12006     -20707.141      44.295358      45.187367      161.23696    
     89200  -20823.915      118.22935     -20705.686      44.30611       45.187859      161.29273    
     89300  -20826.652      114.99289     -20711.659      44.316905      45.187878      161.3485     
     89400  -20828.226      109.91928     -20718.307      44.327905      45.188716      161.40427    
     89500  -20830.947      111.29331     -20719.654      44.337936      45.188151      161.46004    
     89600  -20825.695      110.84143     -20714.854      44.346537      45.188258      161.51582    
     89700  -20824.844      116.02458     -20708.82       44.355962      45.189652      161.57159    
     89800  -20825.706      118.14365     -20707.563      44.363964      45.19011       161.62736    
     89900  -20823.063      111.84092     -20711.222      44.372918      45.191152      161.68313    
     90000  -20829.479      114.46699     -20715.012      44.381258      45.18999       161.7389     
     90100  -20830.539      112.91484     -20717.624      44.390553      45.189738      161.79468    
     90200  -20831.386      113.79927     -20717.587      44.398529      45.188826      161.85045    
     90300  -20830.737      115.17785     -20715.559      44.407799      45.189717      161.90622    
     90400  -20826.793      112.08028     -20714.713      44.416013      45.19038       161.96199    
     90500  -20829.667      114.83136     -20714.836      44.423433      45.191378      162.01776    
     90600  -20833.739      115.33054     -20718.408      44.431843      45.193526      162.07354    
     90700  -20836.233      111.72438     -20724.509      44.439827      45.192488      162.12931    
     90800  -20838.009      110.66978     -20727.34       44.450495      45.194411      162.18508    
     90900  -20838.183      112.58699     -20725.596      44.459634      45.193119      162.24085    
     91000  -20833.854      112.67336     -20721.181      44.469713      45.194166      162.29662    
     91100  -20834.44       117.4107      -20717.029      44.479142      45.194949      162.3524     
     91200  -20830.447      114.32907     -20716.118      44.487446      45.196734      162.40817    
     91300  -20832.278      113.83695     -20718.441      44.494554      45.198356      162.46394    
     91400  -20834.408      111.91638     -20722.492      44.502917      45.20059       162.51971    
     91500  -20838.207      112.38692     -20725.82       44.510869      45.202403      162.57548    
     91600  -20834.846      110.32747     -20724.519      44.5176        45.203356      162.63126    
     91700  -20833.574      114.73342     -20718.84       44.524835      45.204672      162.68703    
     91800  -20829.797      115.09647     -20714.701      44.532855      45.20535       162.7428     
     91900  -20831.831      115.61659     -20716.215      44.54088       45.204886      162.79857    
     92000  -20833.521      112.07507     -20721.446      44.549665      45.204607      162.85435    
     92100  -20835.792      110.98809     -20724.804      44.559388      45.20403       162.91012    
     92200  -20836.175      113.34316     -20722.832      44.568423      45.203042      162.96589    
     92300  -20829.921      113.33129     -20716.589      44.577654      45.202259      163.02166    
     92400  -20832.392      119.78        -20712.612      44.586875      45.201025      163.07743    
     92500  -20828.651      113.23587     -20715.415      44.595617      45.198902      163.13321    
     92600  -20836.953      115.50269     -20721.45       44.604872      45.19807       163.18898    
     92700  -20836.012      110.00232     -20726.009      44.614569      45.197447      163.24475    
     92800  -20837.658      112.19448     -20725.464      44.623212      45.195628      163.30052    
     92900  -20835.995      115.46984     -20720.525      44.63343       45.194657      163.35629    
     93000  -20830.522      114.60223     -20715.92       44.643519      45.193455      163.41207    
     93100  -20833.587      116.67692     -20716.911      44.653324      45.191721      163.46784    
     93200  -20833.43       111.39523     -20722.035      44.661774      45.188836      163.52361    
     93300  -20835.925      110.78771     -20725.137      44.671386      45.188522      163.57938    
     93400  -20835.618      111.87968     -20723.738      44.679671      45.187038      163.63515    
     93500  -20834.23       114.82844     -20719.402      44.687555      45.18567       163.69093    
     93600  -20831.581      115.14378     -20716.437      44.696426      45.184275      163.7467     
     93700  -20829.171      112.87518     -20716.296      44.704966      45.180775      163.80247    
     93800  -20833.606      114.62293     -20718.983      44.715634      45.177497      163.85824    
     93900  -20834.716      113.2666      -20721.45       44.725688      45.173726      163.91401    
     94000  -20833.242      111.7193      -20721.522      44.734961      45.170232      163.96979    
     94100  -20833.583      113.81514     -20719.768      44.743112      45.167221      164.02556    
     94200  -20833.577      115.741       -20717.836      44.751157      45.165132      164.08133    
     94300  -20832.94       114.6611      -20718.278      44.760141      45.163876      164.1371     
     94400  -20834.329      113.95483     -20720.374      44.768247      45.162629      164.19287    
     94500  -20834.106      111.5296      -20722.577      44.776471      45.162219      164.24865    
     94600  -20833.03       110.05988     -20722.97       44.78265       45.16042       164.30442    
     94700  -20835.015      113.61035     -20721.404      44.78914       45.159685      164.36019    
     94800  -20831.92       112.75592     -20719.164      44.795246      45.158514      164.41596    
     94900  -20831.597      113.23867     -20718.358      44.800849      45.156415      164.47173    
     95000  -20834.136      114.52969     -20719.607      44.807707      45.155583      164.52751    
     95100  -20833.242      111.7126      -20721.529      44.813867      45.154921      164.58328    
     95200  -20836.185      113.81163     -20722.373      44.821143      45.155157      164.63905    
     95300  -20835.469      113.36157     -20722.108      44.827657      45.155198      164.69482    
     95400  -20836.798      115.24692     -20721.551      44.834262      45.155321      164.75059    
     95500  -20834.958      113.7226      -20721.236      44.840716      45.154921      164.80637    
     95600  -20833.435      112.99811     -20720.437      44.848232      45.154412      164.86214    
     95700  -20832.616      113.97811     -20718.638      44.855935      45.152891      164.91791    
     95800  -20832.705      114.3146      -20718.39       44.864451      45.152056      164.97368    
     95900  -20835.009      114.87212     -20720.136      44.873255      45.150459      165.02945    
     96000  -20832.092      109.87554     -20722.217      44.881683      45.148012      165.08523    
     96100  -20832.027      110.33785     -20721.69       44.889261      45.144257      165.141      
     96200  -20832.996      114.01691     -20718.979      44.898668      45.141763      165.19677    
     96300  -20831.446      114.5446      -20716.902      44.906768      45.137448      165.25254    
     96400  -20834.301      116.77159     -20717.53       44.915846      45.134291      165.30831    
     96500  -20833.372      113.14237     -20720.229      44.924404      45.131029      165.36409    
     96600  -20833.95       111.29646     -20722.653      44.934047      45.128226      165.41986    
     96700  -20833.372      111.02182     -20722.35       44.943729      45.125863      165.47563    
     96800  -20834.182      113.6521      -20720.529      44.951615      45.122632      165.5314     
     96900  -20832.717      113.42691     -20719.29       44.95985       45.12004       165.58717    
     97000  -20836.358      115.77018     -20720.588      44.967695      45.117391      165.64295    
     97100  -20835.119      112.62763     -20722.491      44.975536      45.114643      165.69872    
     97200  -20836.003      112.95122     -20723.052      44.983855      45.112754      165.75449    
     97300  -20833.905      113.21072     -20720.694      44.991785      45.11107       165.81026    
     97400  -20834.137      116.20367     -20717.933      45.000891      45.110556      165.86604    
     97500  -20831.472      113.42355     -20718.048      45.007882      45.109093      165.92181    
     97600  -20833.724      112.31895     -20721.405      45.015242      45.108282      165.97758    
     97700  -20834.762      110.43274     -20724.329      45.023125      45.107758      166.03335    
     97800  -20835.815      111.67646     -20724.138      45.029264      45.106884      166.08912    
     97900  -20834.035      114.35265     -20719.682      45.034657      45.105938      166.1449     
     98000  -20831.317      115.63104     -20715.686      45.039918      45.104683      166.20067    
     98100  -20831.681      115.57784     -20716.103      45.045661      45.104063      166.25644    
     98200  -20834.812      114.48937     -20720.323      45.050028      45.104455      166.31221    
     98300  -20836.248      111.64358     -20724.605      45.054966      45.104793      166.36798    
     98400  -20836.537      111.45158     -20725.085      45.059285      45.104339      166.42376    
     98500  -20832.524      111.76079     -20720.764      45.063796      45.105291      166.47953    
     98600  -20830.413      115.45348     -20714.959      45.067688      45.106086      166.5353     
     98700  -20831.974      118.42444     -20713.549      45.071566      45.106385      166.59107    
     98800  -20833.55       114.59131     -20718.958      45.077265      45.107286      166.64684    
     98900  -20836.232      110.7107      -20725.521      45.080672      45.10658       166.70262    
     99000  -20837.685      110.29204     -20727.393      45.085996      45.106438      166.75839    
     99100  -20837.658      114.67741     -20722.981      45.090275      45.104805      166.81416    
     99200  -20830.469      113.97249     -20716.497      45.095908      45.104093      166.86993    
     99300  -20833.883      119.44839     -20714.434      45.101334      45.103112      166.9257     
     99400  -20831.638      112.57394     -20719.064      45.106439      45.101086      166.98148    
     99500  -20835.314      110.05094     -20725.264      45.113518      45.099953      167.03725    
     99600  -20834.943      107.51435     -20727.428      45.119263      45.097469      167.09302    
     99700  -20836.174      112.39098     -20723.783      45.127291      45.096387      167.14879    
     99800  -20833.014      115.49475     -20717.519      45.134667      45.095045      167.20456    
     99900  -20830.598      115.79656     -20714.802      45.142665      45.093797      167.26034    
    100000  -20830.267      112.97664     -20717.29       45.150642      45.091965      167.31611    
    100100  -20836.552      113.53809     -20723.014      45.155864      45.088026      167.37188    
    100200  -20838.818      111.69097     -20727.127      45.164936      45.086292      167.42765    
    100300  -20836.245      110.63047     -20725.615      45.171008      45.082278      167.48342    
    100400  -20833.905      114.41301     -20719.492      45.17892       45.079598      167.5392     
    100500  -20832.281      118.02361     -20714.257      45.18631       45.077417      167.59497    
    100600  -20829.898      114.78142     -20715.116      45.192534      45.075301      167.65074    
    100700  -20834.523      112.85903     -20721.664      45.199849      45.074467      167.70651    
    100800  -20839.719      112.86355     -20726.855      45.205322      45.072907      167.76228    
    100900  -20836.387      109.99167     -20726.395      45.212499      45.072399      167.81806    
    101000  -20833.576      112.72895     -20720.847      45.218448      45.070969      167.87383    
    101100  -20831.574      116.37491     -20715.199      45.224934      45.069573      167.9296     
    101200  -20831.822      116.2158      -20715.607      45.231695      45.06839       167.98537    
    101300  -20835.455      113.74099     -20721.714      45.23827       45.067044      168.04114    
    101400  -20836.509      109.8511      -20726.658      45.245813      45.06567       168.09692    
    101500  -20840.3        114.30094     -20725.999      45.251853      45.062851      168.15269    
    101600  -20836.793      115.66399     -20721.129      45.259912      45.061435      168.20846    
    101700  -20834.824      118.33803     -20716.486      45.266593      45.059251      168.26423    
    101800  -20830.376      113.92807     -20716.448      45.273216      45.057398      168.32       
    101900  -20833.978      112.86349     -20721.115      45.279226      45.054661      168.37578    
    102000  -20835.937      110.36649     -20725.57       45.284446      45.051804      168.43155    
    102100  -20835.876      109.97989     -20725.896      45.291867      45.050674      168.48732    
    102200  -20836.69       114.66809     -20722.022      45.297054      45.046865      168.54309    
    102300  -20834.323      116.90266     -20717.42       45.303839      45.043895      168.59886    
    102400  -20832.606      116.45992     -20716.146      45.310807      45.040544      168.65464    
    102500  -20836.399      117.33508     -20719.064      45.317983      45.036711      168.71041    
    102600  -20833.472      109.90671     -20723.565      45.325668      45.033318      168.76618    
    102700  -20838.507      113.0899      -20725.417      45.331365      45.028374      168.82195    
    102800  -20835.031      112.07599     -20722.955      45.338014      45.024277      168.87773    
    102900  -20833.617      115.29634     -20718.321      45.343742      45.017817      168.9335     
    103000  -20833.401      117.26073     -20716.14       45.352207      45.012131      168.98927    
    103100  -20834.398      114.90262     -20719.495      45.360183      45.004344      169.04504    
    103200  -20835.61       110.75497     -20724.855      45.368951      44.997198      169.10081    
    103300  -20835.248      109.10901     -20726.139      45.378524      44.99057       169.15659    
    103400  -20834.397      112.07772     -20722.319      45.386194      44.983776      169.21236    
    103500  -20833.152      115.7951      -20717.357      45.395457      44.977683      169.26813    
    103600  -20830.935      115.52853     -20715.407      45.404329      44.971192      169.3239     
    103700  -20833.875      115.30622     -20718.569      45.414098      44.964771      169.37967    
    103800  -20835.443      112.62281     -20722.821      45.422453      44.957091      169.43545    
    103900  -20836.016      110.98115     -20725.035      45.43093       44.950159      169.49122    
    104000  -20836.04       112.56933     -20723.471      45.439145      44.943737      169.54699    
    104100  -20831.968      112.54148     -20719.427      45.446043      44.937306      169.60276    
    104200  -20831.914      115.3473      -20716.566      45.45208       44.93126       169.65853    
    104300  -20832.844      115.30886     -20717.535      45.457745      44.925709      169.71431    
    104400  -20836.167      114.49741     -20721.67       45.464749      44.920365      169.77008    
    104500  -20835.45       110.38001     -20725.07       45.471201      44.91522       169.82585    
    104600  -20836.178      111.72006     -20724.458      45.47804       44.909228      169.88162    
    104700  -20833.344      113.15224     -20720.191      45.485721      44.903764      169.93739    
    104800  -20830.422      113.76033     -20716.662      45.493783      44.898186      169.99317    
    104900  -20832.483      116.20267     -20716.281      45.50288       44.893334      170.04894    
    105000  -20834.231      114.76215     -20719.469      45.509768      44.887321      170.10471    
    105100  -20837.053      113.45145     -20723.601      45.517711      44.882296      170.16048    
    105200  -20835.475      110.33386     -20725.142      45.525239      44.875723      170.21625    
    105300  -20833.232      111.01733     -20722.215      45.53295       44.868897      170.27203    
    105400  -20832.062      114.51455     -20717.548      45.540911      44.860822      170.3278     
    105500  -20832.089      116.7483      -20715.341      45.549025      44.852337      170.38357    
    105600  -20833.228      115.24413     -20717.984      45.558571      44.844508      170.43934    
    105700  -20835.424      112.86708     -20722.557      45.566151      44.835614      170.49511    
    105800  -20834.478      109.80367     -20724.675      45.573852      44.827551      170.55089    
    105900  -20837.011      113.91402     -20723.097      45.581735      44.819461      170.60666    
    106000  -20833.993      114.93597     -20719.057      45.590798      44.812047      170.66243    
    106100  -20832.752      116.53451     -20716.218      45.6009        44.804757      170.7182     
    106200  -20833.374      115.9332      -20717.441      45.609722      44.795285      170.77397    
    106300  -20833.676      112.27261     -20721.404      45.621368      44.787504      170.82975    
    106400  -20837.137      112.98266     -20724.154      45.629846      44.77845       170.88552    
    106500  -20834.262      110.4325      -20723.83       45.638079      44.76992       170.94129    
    106600  -20835.098      114.72641     -20720.371      45.646717      44.761848      170.99706    
    106700  -20832.249      115.03058     -20717.218      45.654906      44.753132      171.05283    
    106800  -20832.255      114.94777     -20717.307      45.664625      44.745837      171.10861    
    106900  -20836.732      116.16963     -20720.562      45.672641      44.736685      171.16438    
    107000  -20834.999      110.81057     -20724.188      45.682737      44.728091      171.22015    
    107100  -20837.057      112.01051     -20725.046      45.692749      44.718776      171.27592    
    107200  -20834.594      112.42342     -20722.171      45.702502      44.708818      171.33169    
    107300  -20833.852      115.27438     -20718.577      45.713673      44.698347      171.38747    
    107400  -20833.393      115.05159     -20718.342      45.723623      44.686624      171.44324    
    107500  -20832.494      111.64546     -20720.848      45.735385      44.676435      171.49901    
    107600  -20835.868      112.49608     -20723.372      45.745581      44.664916      171.55478    
    107700  -20834.347      110.6433      -20723.704      45.756626      44.653423      171.61055    
    107800  -20833.718      111.58199     -20722.136      45.769357      44.642514      171.66633    
    107900  -20835.082      114.41555     -20720.666      45.779868      44.62995       171.7221     
    108000  -20832.994      112.46825     -20720.526      45.791755      44.618287      171.77787    
    108100  -20834.148      113.08302     -20721.065      45.801468      44.604459      171.83364    
    108200  -20835.583      112.91882     -20722.664      45.813573      44.591506      171.88941    
    108300  -20837.103      112.14196     -20724.961      45.823581      44.576746      171.94519    
    108400  -20839.329      113.50854     -20725.821      45.835062      44.563598      172.00096    
    108500  -20837.395      113.32929     -20724.066      45.846743      44.550315      172.05673    
    108600  -20836.433      114.67034     -20721.763      45.858095      44.53705       172.1125     
    108700  -20833.549      113.49046     -20720.059      45.869393      44.524285      172.16828    
    108800  -20835.277      114.75541     -20720.522      45.880997      44.511714      172.22405    
    108900  -20836.587      112.79031     -20723.797      45.892217      44.499302      172.27982    
    109000  -20838.152      111.07345     -20727.079      45.903289      44.486862      172.33559    
    109100  -20838.8        111.73822     -20727.062      45.912787      44.472987      172.39136    
    109200  -20836.836      113.55998     -20723.276      45.923546      44.459738      172.44714    
    109300  -20835.887      116.46847     -20719.418      45.933921      44.445711      172.50291    
    109400  -20836.521      116.68347     -20719.837      45.945774      44.431559      172.55868    
    109500  -20836.846      110.96189     -20725.884      45.958686      44.417225      172.61445    
    109600  -20842.257      111.92957     -20730.327      45.971347      44.402501      172.67022    
    109700  -20837.913      108.41656     -20729.496      45.985259      44.388916      172.726      
    109800  -20838.216      113.86247     -20724.354      45.997583      44.374927      172.78177    
    109900  -20835.232      116.313       -20718.919      46.009266      44.361512      172.83754    
    110000  -20836.209      116.69597     -20719.513      46.020791      44.348007      172.89331    
    110100  -20838.628      113.8364      -20724.792      46.032321      44.333991      172.94908    
    110200  -20840.348      110.63451     -20729.714      46.04527       44.319332      173.00486    
    110300  -20843.409      112.81777     -20730.591      46.059587      44.303139      173.06063    
    110400  -20838.775      112.55264     -20726.223      46.074884      44.286942      173.1164     
    110500  -20837.203      116.54095     -20720.662      46.089728      44.270623      173.17217    
    110600  -20835.27       115.88864     -20719.382      46.103982      44.25393       173.22794    
    110700  -20837.344      113.94177     -20723.402      46.118573      44.23789       173.28372    
    110800  -20839.973      110.88122     -20729.092      46.132507      44.22207       173.33949    
    110900  -20841.453      110.42644     -20731.026      46.143505      44.205324      173.39526    
    111000  -20838.504      111.11778     -20727.387      46.156866      44.189573      173.45103    
    111100  -20835.627      113.70376     -20721.924      46.17001       44.172412      173.5068     
    111200  -20836.461      116.16747     -20720.294      46.183029      44.156356      173.56258    
    111300  -20836.382      112.69784     -20723.685      46.194138      44.139714      173.61835    
    111400  -20836.321      107.92747     -20728.393      46.206721      44.123743      173.67412    
    111500  -20840.254      110.82851     -20729.426      46.220582      44.107271      173.72989    
    111600  -20837.52       110.779       -20726.741      46.234281      44.090433      173.78566    
    111700  -20839.608      117.0723      -20722.535      46.249058      44.074179      173.84144    
    111800  -20836.098      115.1222      -20720.976      46.265565      44.057176      173.89721    
    111900  -20837.054      113.62894     -20723.425      46.281111      44.039361      173.95298    
    112000  -20838.922      111.37032     -20727.552      46.296525      44.021467      174.00875    
    112100  -20840.888      112.31488     -20728.573      46.31033       44.002714      174.06452    
    112200  -20839.922      114.00409     -20725.918      46.324642      43.983789      174.1203     
    112300  -20839.416      117.38703     -20722.029      46.339271      43.964893      174.17607    
    112400  -20838.646      116.86648     -20721.78       46.351587      43.944437      174.23184    
    112500  -20837.783      112.86657     -20724.916      46.365109      43.92498       174.28761    
    112600  -20841.956      113.44491     -20728.511      46.378979      43.905479      174.34338    
    112700  -20842.069      111.97663     -20730.092      46.392863      43.88585       174.39916    
    112800  -20840.356      112.28353     -20728.072      46.406841      43.867486      174.45493    
    112900  -20837.571      112.54185     -20725.029      46.419319      43.84858       174.5107     
    113000  -20836.481      112.67076     -20723.81       46.432586      43.830933      174.56647    
    113100  -20838.695      113.5482      -20725.147      46.445864      43.811918      174.62224    
    113200  -20838.705      110.97968     -20727.725      46.460836      43.794523      174.67802    
    113300  -20838.574      109.96631     -20728.608      46.473588      43.776828      174.73379    
    113400  -20839.337      112.68196     -20726.655      46.486174      43.759734      174.78956    
    113500  -20838.046      113.6226      -20724.424      46.499342      43.741729      174.84533    
    113600  -20841.975      118.09392     -20723.881      46.511895      43.72393       174.9011     
    113700  -20838.511      113.06977     -20725.441      46.524703      43.707633      174.95688    
    113800  -20840.108      112.20299     -20727.905      46.536515      43.690087      175.01265    
    113900  -20842.187      113.53828     -20728.649      46.550683      43.673879      175.06842    
    114000  -20840.791      113.793       -20726.998      46.562761      43.656489      175.12419    
    114100  -20840.789      116.2411      -20724.548      46.575118      43.639638      175.17997    
    114200  -20838.42       115.68039     -20722.74       46.58759       43.623193      175.23574    
    114300  -20838.745      115.2885      -20723.457      46.598723      43.606816      175.29151    
    114400  -20842.142      115.68887     -20726.454      46.609261      43.591982      175.34728    
    114500  -20841.573      111.94173     -20729.632      46.618629      43.576965      175.40305    
    114600  -20840.687      111.46213     -20729.225      46.628739      43.562527      175.45883    
    114700  -20839.816      113.47238     -20726.343      46.636882      43.5482        175.5146     
    114800  -20838.156      115.13227     -20723.023      46.64568       43.53481       175.57037    
    114900  -20832.443      110.10927     -20722.334      46.654808      43.521958      175.62614    
    115000  -20837.776      112.47213     -20725.304      46.662945      43.508247      175.68191    
    115100  -20841.322      111.92703     -20729.395      46.672781      43.496493      175.73769    
    115200  -20840.963      110.49522     -20730.468      46.680321      43.482406      175.79346    
    115300  -20841.046      113.82044     -20727.226      46.690224      43.470883      175.84923    
    115400  -20837.494      115.06195     -20722.432      46.696825      43.457384      175.905      
    115500  -20836.878      115.53175     -20721.346      46.705913      43.445629      175.96077    
    115600  -20838.03       113.86599     -20724.164      46.7129        43.433314      176.01655    
    115700  -20840.693      112.17071     -20728.522      46.719306      43.420059      176.07232    
    115800  -20839.865      109.22899     -20730.636      46.727581      43.408229      176.12809    
    115900  -20840.551      111.89197     -20728.659      46.733702      43.395029      176.18386    
    116000  -20838.789      114.30505     -20724.484      46.740942      43.384142      176.23963    
    116100  -20837.749      116.49822     -20721.251      46.746397      43.371428      176.29541    
    116200  -20838.763      116.41473     -20722.348      46.755093      43.360349      176.35118    
    116300  -20839.113      112.60638     -20726.506      46.762788      43.348753      176.40695    
    116400  -20841.274      111.78674     -20729.487      46.768865      43.337203      176.46272    
    116500  -20839.131      111.0456      -20728.086      46.776481      43.327122      176.51849    
    116600  -20837.962      114.08282     -20723.879      46.783364      43.315945      176.57427    
    116700  -20836.18       115.04083     -20721.139      46.790147      43.305997      176.63004    
    116800  -20837.02       115.09936     -20721.921      46.795282      43.294646      176.68581    
    116900  -20838.774      112.91854     -20725.855      46.80177       43.284747      176.74158    
    117000  -20841.188      112.37588     -20728.812      46.806107      43.274126      176.79735    
    117100  -20842.693      113.75218     -20728.941      46.809537      43.264589      176.85313    
    117200  -20840.304      113.0739      -20727.231      46.813755      43.255017      176.9089     
    117300  -20838.089      113.63619     -20724.452      46.819325      43.24503       176.96467    
    117400  -20839.217      116.42616     -20722.791      46.826372      43.23533       177.02044    
    117500  -20837.742      114.21894     -20723.523      46.831898      43.224282      177.07621    
    117600  -20838.055      111.83413     -20726.221      46.838619      43.214178      177.13199    
    117700  -20841.526      113.20444     -20728.321      46.846321      43.204213      177.18776    
    117800  -20842.43       113.93556     -20728.494      46.852715      43.193318      177.24353    
    117900  -20839.498      113.20431     -20726.294      46.85896       43.183771      177.2993     
    118000  -20838.881      115.49742     -20723.383      46.863455      43.17296       177.35507    
    118100  -20837.901      115.00226     -20722.899      46.87024       43.163779      177.41085    
    118200  -20841.128      116.19293     -20724.936      46.876047      43.153063      177.46662    
    118300  -20840.234      112.75123     -20727.482      46.881349      43.143215      177.52239    
    118400  -20839.08       109.63783     -20729.442      46.886013      43.133782      177.57816    
    118500  -20839.203      111.01169     -20728.191      46.890798      43.124305      177.63393    
    118600  -20838.248      114.10464     -20724.143      46.895967      43.115076      177.68971    
    118700  -20836.259      115.43459     -20720.825      46.901491      43.105867      177.74548    
    118800  -20836.752      114.92097     -20721.831      46.907653      43.097301      177.80125    
    118900  -20837.249      111.27332     -20725.975      46.913493      43.088546      177.85702    
    119000  -20840.944      111.23729     -20729.707      46.918448      43.080202      177.91279    
    119100  -20841.245      111.67493     -20729.57       46.921668      43.072119      177.96857    
    119200  -20839.162      113.548       -20725.614      46.923641      43.063165      178.02434    
    119300  -20837.651      115.47897     -20722.172      46.926081      43.055141      178.08011    
    119400  -20835.163      113.139       -20722.024      46.92687       43.046909      178.13588    
    119500  -20840.354      115.38655     -20724.967      46.928412      43.038198      178.19166    
    119600  -20842.665      114.18774     -20728.478      46.931101      43.029385      178.24743    
    119700  -20841.14       111.70706     -20729.433      46.934066      43.020153      178.3032     
    119800  -20840.42       113.41888     -20727.002      46.93776       43.010435      178.35897    
    119900  -20837.319      113.89264     -20723.426      46.942921      43.000111      178.41474    
    120000  -20838.684      116.34688     -20722.337      46.948589      42.98941       178.47052    
    120100  -20840.645      116.09574     -20724.549      46.953467      42.979265      178.52629    
    120200  -20839.066      111.13084     -20727.935      46.958069      42.969954      178.58206    
    120300  -20840.173      112.19849     -20727.975      46.961796      42.960525      178.63783    
    120400  -20838.932      113.48572     -20725.446      46.96417       42.951187      178.6936     
    120500  -20839.265      116.22864     -20723.037      46.966337      42.941546      178.74938    
    120600  -20838.42       115.74204     -20722.678      46.969816      42.932651      178.80515    
    120700  -20839.017      114.25013     -20724.767      46.973784      42.923274      178.86092    
    120800  -20840.627      113.47751     -20727.149      46.976849      42.914569      178.91669    
    120900  -20839.122      111.35168     -20727.77       46.979368      42.904111      178.97246    
    121000  -20838.584      112.33352     -20726.25       46.983874      42.895894      179.02824    
    121100  -20838.799      113.86609     -20724.933      46.987297      42.88602       179.08401    
    121200  -20836.634      113.29928     -20723.335      46.990959      42.878348      179.13978    
    121300  -20837.609      113.46205     -20724.147      46.993815      42.870769      179.19555    
    121400  -20840.477      114.14836     -20726.329      46.996865      42.86395       179.25132    
    121500  -20840.985      112.97543     -20728.009      46.99964       42.858094      179.3071     
    121600  -20840.678      113.18185     -20727.496      47.001389      42.851559      179.36287    
    121700  -20835.559      109.80324     -20725.756      47.003417      42.846221      179.41864    
    121800  -20837.545      113.94028     -20723.605      47.004384      42.838712      179.47441    
    121900  -20839.058      114.5706      -20724.488      47.006619      42.831851      179.53018    
    122000  -20838.186      111.89512     -20726.291      47.008482      42.825038      179.58596    
    122100  -20841.158      113.61897     -20727.539      47.009678      42.817608      179.64173    
    122200  -20839.648      112.53994     -20727.108      47.01203       42.80961       179.6975     
    122300  -20839.352      113.819       -20725.533      47.014305      42.800498      179.75327    
    122400  -20839.512      115.2315      -20724.281      47.018234      42.793168      179.80904    
    122500  -20837.149      113.0507      -20724.098      47.02018       42.783555      179.86482    
    122600  -20837.277      112.07393     -20725.203      47.023216      42.77622       179.92059    
    122700  -20839.606      112.53226     -20727.074      47.02558       42.767703      179.97636    
    122800  -20839.083      111.03223     -20728.051      47.02747       42.75995       180.03213    
    122900  -20837.396      111.089       -20726.307      47.02976       42.751657      180.0879     
    123000  -20838.958      114.8997      -20724.058      47.032483      42.742139      180.14368    
    123100  -20837.541      115.45066     -20722.09       47.035667      42.734331      180.19945    
    123200  -20836.02       112.76638     -20723.254      47.03683       42.725432      180.25522    
    123300  -20842.155      115.65615     -20726.499      47.039522      42.717537      180.31099    
    123400  -20838.048      109.38586     -20728.663      47.042321      42.709324      180.36676    
    123500  -20839.842      112.60724     -20727.234      47.04451       42.702859      180.42254    
    123600  -20837.671      113.54723     -20724.124      47.045061      42.695215      180.47831    
    123700  -20837.131      115.17997     -20721.951      47.045419      42.687644      180.53408    
    123800  -20836.148      112.50721     -20723.641      47.047537      42.681715      180.58985    
    123900  -20839.439      112.13821     -20727.301      47.048075      42.674581      180.64562    
    124000  -20838.509      109.02179     -20729.488      47.048869      42.668367      180.7014     
    124100  -20837.791      109.81134     -20727.979      47.050495      42.662253      180.75717    
    124200  -20841.017      116.19699     -20724.82       47.051913      42.656088      180.81294    
    124300  -20837.942      115.16447     -20722.778      47.054114      42.650821      180.86871    
    124400  -20837.345      113.6923      -20723.653      47.05483       42.643985      180.92448    
    124500  -20839.684      113.48628     -20726.197      47.057834      42.638853      180.98026    
    124600  -20838.259      109.92751     -20728.331      47.058038      42.631003      181.03603    
    124700  -20839.283      111.48501     -20727.798      47.058197      42.625044      181.0918     
    124800  -20839.282      113.87822     -20725.403      47.057363      42.617938      181.14757    
    124900  -20838.423      114.71859     -20723.704      47.057795      42.610015      181.20334    
    125000  -20837.826      114.36193     -20723.464      47.059841      42.603099      181.25912    
    125100  -20839.188      113.72769     -20725.46       47.059388      42.594784      181.31489    
    125200  -20839.166      111.41529     -20727.751      47.060258      42.587781      181.37066    
    125300  -20840.745      112.71712     -20728.028      47.060946      42.57913       181.42643    
    125400  -20840.143      112.98516     -20727.158      47.062786      42.57172       181.48221    
    125500  -20838.564      113.36744     -20725.197      47.063124      42.564638      181.53798    
    125600  -20838.117      114.55176     -20723.565      47.062312      42.556502      181.59375    
    125700  -20837.116      113.5318      -20723.584      47.063368      42.550469      181.64952    
    125800  -20839.568      113.82539     -20725.743      47.061534      42.54242       181.70529    
    125900  -20839.886      111.84231     -20728.044      47.060956      42.536633      181.76107    
    126000  -20840.858      112.58885     -20728.269      47.05893       42.528905      181.81684    
    126100  -20841.26       114.84431     -20726.416      47.058566      42.522382      181.87261    
    126200  -20839.024      114.39742     -20724.627      47.057593      42.515369      181.92838    
    126300  -20840.419      114.97785     -20725.442      47.057204      42.507258      181.98415    
    126400  -20843.194      114.81555     -20728.378      47.058864      42.500256      182.03993    
    126500  -20843          112.79029     -20730.21       47.058154      42.491268      182.0957     
    126600  -20840.277      111.51978     -20728.757      47.059584      42.484658      182.15147    
    126700  -20841.067      115.82464     -20725.242      47.060905      42.47765       182.20724    
    126800  -20838.659      115.58281     -20723.076      47.062796      42.4713        182.26301    
    126900  -20838.852      114.52139     -20724.33       47.065272      42.465616      182.31879    
    127000  -20840.709      112.8637      -20727.846      47.067595      42.458841      182.37456    
    127100  -20842.083      111.64633     -20730.437      47.071143      42.453984      182.43033    
    127200  -20841.409      112.14565     -20729.263      47.072368      42.447246      182.4861     
    127300  -20838.164      112.11012     -20726.054      47.074077      42.441124      182.54187    
    127400  -20837.201      113.94584     -20723.255      47.075845      42.435399      182.59765    
    127500  -20839.964      115.85485     -20724.11       47.07668       42.429655      182.65342    
    127600  -20839.409      111.52587     -20727.883      47.077241      42.423726      182.70919    
    127700  -20843.724      112.80502     -20730.919      47.076504      42.416721      182.76496    
    127800  -20843.758      113.35052     -20730.408      47.075211      42.411023      182.82073    
    127900  -20842.226      115.22221     -20727.004      47.07273       42.404592      182.87651    
    128000  -20837.861      113.94158     -20723.92       47.071481      42.399274      182.93228    
    128100  -20840.895      117.16795     -20723.727      47.06991       42.393713      182.98805    
    128200  -20837.657      111.96281     -20725.694      47.068735      42.38834       183.04382    
    128300  -20840.393      111.82669     -20728.567      47.069884      42.383162      183.09959    
    128400  -20842.733      113.13978     -20729.594      47.071493      42.376942      183.15537    
    128500  -20841.021      112.6291      -20728.392      47.072046      42.371145      183.21114    
    128600  -20839.602      113.9896      -20725.612      47.070396      42.364447      183.26691    
    128700  -20839.338      115.12667     -20724.212      47.071222      42.358265      183.32268    
    128800  -20837.555      112.27791     -20725.277      47.071776      42.350538      183.37845    
    128900  -20842.231      114.56684     -20727.664      47.069895      42.342775      183.43423    
    129000  -20843.477      113.7378      -20729.739      47.06644       42.335807      183.49       
    129100  -20842.423      112.34685     -20730.076      47.063268      42.328752      183.54577    
    129200  -20842.906      115.22255     -20727.683      47.06129       42.322852      183.60154    
    129300  -20838.119      112.83959     -20725.279      47.058351      42.316605      183.65731    
    129400  -20839.79       115.38607     -20724.404      47.056132      42.310781      183.71309    
    129500  -20839.696      113.42585     -20726.27       47.055465      42.304852      183.76886    
    129600  -20840.943      112.93424     -20728.008      47.054864      42.298364      183.82463    
    129700  -20841.207      112.8895      -20728.317      47.054968      42.29206       183.8804     
    129800  -20837.755      110.45115     -20727.304      47.055546      42.285868      183.93617    
    129900  -20839.166      113.18541     -20725.98       47.054247      42.278636      183.99195    
    130000  -20838.816      114.11395     -20724.702      47.053634      42.271746      184.04772    
    130100  -20841.016      116.21075     -20724.805      47.054525      42.264468      184.10349    
    130200  -20840.693      114.67657     -20726.017      47.054018      42.256368      184.15926    
    130300  -20840.381      112.75514     -20727.626      47.051166      42.24866       184.21503    
    130400  -20838.338      110.14419     -20728.194      47.048353      42.240295      184.27081    
    130500  -20839.788      112.38437     -20727.404      47.047177      42.23312       184.32658    
    130600  -20840.921      115.08528     -20725.836      47.043969      42.22437       184.38235    
    130700  -20840.27       114.94522     -20725.324      47.040328      42.216754      184.43812    
    130800  -20839.33       113.35978     -20725.97       47.038285      42.209377      184.4939     
    130900  -20838.798      111.24495     -20727.553      47.035558      42.201755      184.54967    
    131000  -20839.487      111.77735     -20727.71       47.032872      42.194711      184.60544    
    131100  -20838.495      112.02301     -20726.472      47.031744      42.187605      184.66121    
    131200  -20839.548      114.38671     -20725.161      47.029706      42.180703      184.71698    
    131300  -20837.396      111.57547     -20725.82       47.025623      42.173477      184.77276    
    131400  -20842.47       114.46297     -20728.007      47.022077      42.165349      184.82853    
    131500  -20840.42       110.95127     -20729.468      47.020385      42.157216      184.8843     
    131600  -20842.883      114.01528     -20728.868      47.018009      42.149188      184.94007    
    131700  -20838.847      113.07947     -20725.768      47.014274      42.140687      184.99584    
    131800  -20839.637      116.07938     -20723.557      47.011911      42.131707      185.05162    
    131900  -20839.637      113.99256     -20725.644      47.011146      42.12314       185.10739    
    132000  -20841.802      111.99448     -20729.807      47.009359      42.114509      185.16316    
    132100  -20840.109      110.91983     -20729.19       47.007496      42.106152      185.21893    
    132200  -20838.431      111.64581     -20726.785      47.005882      42.098348      185.2747     
    132300  -20840.934      115.95977     -20724.974      47.002327      42.089368      185.33048    
    132400  -20840.234      115.26032     -20724.974      46.999362      42.081827      185.38625    
    132500  -20841.81       112.80243     -20729.007      46.996069      42.072623      185.44202    
    132600  -20842.203      111.605       -20730.598      46.992357      42.064932      185.49779    
    132700  -20840.485      112.26469     -20728.22       46.986009      42.05605       185.55356    
    132800  -20840.101      114.60766     -20725.493      46.98019       42.047489      185.60934    
    132900  -20838          112.80487     -20725.195      46.976422      42.039508      185.66511    
    133000  -20838.111      112.20755     -20725.904      46.970701      42.030236      185.72088    
    133100  -20839.726      112.58946     -20727.137      46.965921      42.02284       185.77665    
    133200  -20841.416      111.37877     -20730.038      46.962577      42.015141      185.83242    
    133300  -20844.518      111.12332     -20733.395      46.959718      42.006795      185.8882     
    133400  -20841.523      110.92532     -20730.598      46.956972      41.998956      185.94397    
    133500  -20840.746      113.28849     -20727.458      46.952672      41.989812      185.99974    
    133600  -20838.962      113.34359     -20725.618      46.949436      41.981825      186.05551    
    133700  -20836.93       112.47409     -20724.456      46.945742      41.972674      186.11128    
    133800  -20839.83       114.90197     -20724.928      46.941689      41.96421       186.16706    
    133900  -20842.952      114.65267     -20728.299      46.936077      41.955664      186.22283    
    134000  -20840.814      110.63777     -20730.177      46.930711      41.947263      186.2786     
    134100  -20840.652      112.32966     -20728.323      46.9254        41.938428      186.33437    
    134200  -20838.001      112.77835     -20725.222      46.921816      41.92994       186.39014    
    134300  -20837.614      113.00191     -20724.613      46.918931      41.921245      186.44592    
    134400  -20840.206      114.51858     -20725.687      46.916518      41.912956      186.50169    
    134500  -20839.468      111.89351     -20727.574      46.913956      41.904103      186.55746    
    134600  -20842.113      111.81952     -20730.293      46.911089      41.894941      186.61323    
    134700  -20843.111      112.33988     -20730.771      46.907797      41.886005      186.669      
    134800  -20838.582      112.88618     -20725.696      46.902778      41.8756        186.72478    
    134900  -20838.904      115.31173     -20723.593      46.898618      41.866514      186.78055    
    135000  -20839.699      115.31147     -20724.388      46.893329      41.856871      186.83632    
    135100  -20838.499      110.83367     -20727.665      46.888224      41.847043      186.89209    
    135200  -20837.421      108.65789     -20728.763      46.883922      41.836847      186.94786    
    135300  -20842.912      114.79447     -20728.117      46.880901      41.827293      187.00364    
    135400  -20838.884      111.88321     -20727.001      46.878917      41.818117      187.05941    
    135500  -20839.426      113.24327     -20726.183      46.876165      41.80763       187.11518    
    135600  -20840.046      114.1974      -20725.849      46.873719      41.797954      187.17095    
    135700  -20840.943      112.23807     -20728.704      46.871187      41.787793      187.22672    
    135800  -20844.411      112.64906     -20731.762      46.867475      41.777435      187.2825     
    135900  -20842.401      112.47927     -20729.922      46.862913      41.767052      187.33827    
    136000  -20838.535      112.15076     -20726.384      46.858188      41.75596       187.39404    
    136100  -20839.39       114.52764     -20724.863      46.853669      41.74589       187.44981    
    136200  -20841.403      115.48252     -20725.921      46.847929      41.735267      187.50559    
    136300  -20842.036      112.25398     -20729.782      46.843256      41.725384      187.56136    
    136400  -20842.683      112.18318     -20730.5        46.837776      41.714128      187.61713    
    136500  -20838.844      110.03631     -20728.807      46.832751      41.703207      187.6729     
    136600  -20842.908      116.11085     -20726.798      46.827867      41.692608      187.72867    
    136700  -20838.242      112.92982     -20725.312      46.823226      41.681273      187.78445    
    136800  -20840.167      114.84911     -20725.318      46.81984       41.670706      187.84022    
    136900  -20842.252      112.57551     -20729.676      46.816804      41.65947       187.89599    
    137000  -20844.097      113.20527     -20730.892      46.813926      41.649518      187.95176    
    137100  -20840.77       112.55517     -20728.214      46.810202      41.638517      188.00753    
    137200  -20839.628      113.99173     -20725.636      46.806546      41.628163      188.06331    
    137300  -20841.579      115.74315     -20725.836      46.802391      41.617516      188.11908    
    137400  -20837.19       110.79662     -20726.394      46.796653      41.606604      188.17485    
    137500  -20840.864      112.91917     -20727.945      46.790865      41.596363      188.23062    
    137600  -20845.58       113.40165     -20732.178      46.784161      41.584364      188.28639    
    137700  -20842.095      109.65165     -20732.443      46.778009      41.573054      188.34217    
    137800  -20842.917      114.20548     -20728.712      46.772365      41.560686      188.39794    
    137900  -20842.535      115.4976      -20727.038      46.768618      41.549306      188.45371    
    138000  -20839.793      113.97145     -20725.822      46.763464      41.536886      188.50948    
    138100  -20839.601      114.37425     -20725.227      46.759         41.52396       188.56525    
    138200  -20838.847      113.01787     -20725.829      46.757037      41.511325      188.62103    
    138300  -20844.077      115.04812     -20729.029      46.754039      41.497867      188.6768     
    138400  -20840.73       110.57943     -20730.151      46.749628      41.48541       188.73257    
    138500  -20839.849      112.58219     -20727.267      46.744717      41.47286       188.78834    
    138600  -20839.406      114.9821      -20724.424      46.740084      41.46025       188.84411    
    138700  -20840.743      115.95807     -20724.785      46.736043      41.44885       188.89989    
    138800  -20839.814      113.77128     -20726.043      46.729953      41.435858      188.95566    
    138900  -20839.823      112.22317     -20727.6        46.726437      41.423384      189.01143    
    139000  -20841.805      112.3534      -20729.451      46.72224       41.411671      189.0672     
    139100  -20843.308      110.70243     -20732.606      46.714758      41.39936       189.12297    
    139200  -20842.08       109.33255     -20732.747      46.709164      41.388694      189.17875    
    139300  -20842.03       114.23119     -20727.798      46.702435      41.376747      189.23452    
    139400  -20839.719      113.46259     -20726.256      46.694118      41.365383      189.29029    
    139500  -20840.777      114.83134     -20725.945      46.684508      41.354042      189.34606    
    139600  -20840.578      113.17677     -20727.402      46.676855      41.341875      189.40183    
    139700  -20839.769      110.4158      -20729.353      46.67036       41.330409      189.45761    
    139800  -20842.534      112.00814     -20730.526      46.662708      41.318505      189.51338    
    139900  -20839.122      111.63089     -20727.491      46.655955      41.307334      189.56915    
    140000  -20837.931      114.19624     -20723.735      46.65024       41.295668      189.62492    
    140100  -20838.869      113.73023     -20725.138      46.644679      41.28412       189.68069    
    140200  -20841.308      113.30324     -20728.004      46.63783       41.271395      189.73647    
    140300  -20840.454      111.51677     -20728.937      46.631697      41.258696      189.79224    
    140400  -20840.511      112.31817     -20728.193      46.626198      41.245646      189.84801    
    140500  -20840.927      113.81544     -20727.112      46.619598      41.23142       189.90378    
    140600  -20840.555      115.87543     -20724.68       46.613206      41.217836      189.95955    
    140700  -20837.262      117.32263     -20719.939      46.606928      41.203891      190.01533    
    140800  -20838.198      115.37296     -20722.825      46.601503      41.189767      190.0711     
    140900  -20841.261      115.16956     -20726.092      46.597022      41.175284      190.12687    
    141000  -20840.079      112.11575     -20727.963      46.592524      41.160627      190.18264    
    141100  -20840.617      111.76618     -20728.851      46.589165      41.148389      190.23841    
    141200  -20840.593      112.771       -20727.822      46.583701      41.134774      190.29419    
    141300  -20838.415      114.52861     -20723.886      46.578436      41.122756      190.34996    
    141400  -20836.833      113.80298     -20723.03       46.571387      41.110188      190.40573    
    141500  -20840          113.35984     -20726.64       46.56417       41.098462      190.4615     
    141600  -20842.071      114.02469     -20728.046      46.556248      41.086004      190.51727    
    141700  -20840.896      113.01925     -20727.876      46.547979      41.073228      190.57305    
    141800  -20842.316      116.00217     -20726.314      46.540885      41.061242      190.62882    
    141900  -20840.628      116.48939     -20724.139      46.535405      41.048961      190.68459    
    142000  -20838.925      117.54774     -20721.377      46.529942      41.036308      190.74036    
    142100  -20837.858      114.16821     -20723.69       46.523472      41.023353      190.79614    
    142200  -20838.092      110.56697     -20727.525      46.518049      41.010708      190.85191    
    142300  -20841.394      113.41        -20727.984      46.512628      40.997965      190.90768    
    142400  -20837.584      110.99486     -20726.589      46.504874      40.985218      190.96345    
    142500  -20840.3        117.10394     -20723.196      46.495148      40.971317      191.01922    
    142600  -20839.407      118.25792     -20721.149      46.487284      40.958366      191.075      
    142700  -20840.435      115.28667     -20725.148      46.478979      40.945172      191.13077    
    142800  -20840.493      113.07438     -20727.418      46.470733      40.933355      191.18654    
    142900  -20842.054      114.14725     -20727.907      46.46345       40.922071      191.24231    
    143000  -20841.335      114.40818     -20726.927      46.457395      40.908816      191.29808    
    143100  -20842.266      117.63729     -20724.628      46.454329      40.896982      191.35386    
    143200  -20837.373      114.27493     -20723.098      46.450209      40.883912      191.40963    
    143300  -20840.97       115.11887     -20725.852      46.446321      40.870791      191.4654     
    143400  -20839.894      111.10339     -20728.791      46.442724      40.857859      191.52117    
    143500  -20842.091      113.22864     -20728.863      46.436306      40.844435      191.57694    
    143600  -20841.175      114.43104     -20726.744      46.429754      40.832054      191.63272    
    143700  -20839.671      117.0458      -20722.626      46.423741      40.820056      191.68849    
    143800  -20837.81       116.30433     -20721.505      46.41683       40.807492      191.74426    
    143900  -20839.822      112.90927     -20726.913      46.410857      40.79516       191.80003    
    144000  -20839.665      111.60496     -20728.06       46.408308      40.782799      191.8558     
    144100  -20840.447      112.15271     -20728.295      46.407199      40.771316      191.91158    
    144200  -20841.946      115.12481     -20726.821      46.402997      40.759129      191.96735    
    144300  -20838.766      114.54525     -20724.221      46.399018      40.74774       192.02312    
    144400  -20839.512      116.77626     -20722.736      46.396882      40.737375      192.07889    
    144500  -20841.03       114.44489     -20726.585      46.391587      40.726551      192.13466    
    144600  -20840.836      111.32441     -20729.511      46.38217       40.715548      192.19044    
    144700  -20841.02       112.01531     -20729.005      46.37451       40.705262      192.24621    
    144800  -20842.637      116.43585     -20726.201      46.367239      40.694873      192.30198    
    144900  -20839.198      115.74804     -20723.45       46.359377      40.684322      192.35775    
    145000  -20838.046      114.52624     -20723.52       46.351917      40.674054      192.41352    
    145100  -20842.025      114.23122     -20727.794      46.347321      40.664076      192.4693     
    145200  -20841.318      113.6104      -20727.708      46.343683      40.654008      192.52507    
    145300  -20841.041      112.62189     -20728.419      46.339668      40.643185      192.58084    
    145400  -20840.567      113.81602     -20726.751      46.335475      40.631997      192.63661    
    145500  -20839.922      116.54713     -20723.374      46.33033       40.620694      192.69238    
    145600  -20840.776      118.08734     -20722.689      46.323428      40.608534      192.74816    
    145700  -20838.909      111.94637     -20726.963      46.317531      40.597259      192.80393    
    145800  -20840.39       112.13037     -20728.26       46.31244       40.585999      192.8597     
    145900  -20838.268      111.11855     -20727.15       46.306636      40.573846      192.91547    
    146000  -20837.131      112.2582      -20724.873      46.30076       40.562561      192.97124    
    146100  -20835.477      112.47206     -20723.005      46.292452      40.549818      193.02702    
    146200  -20841.515      117.15133     -20724.364      46.286945      40.53784       193.08279    
    146300  -20841.069      112.03694     -20729.032      46.281175      40.524809      193.13856    
    146400  -20840.98       111.59419     -20729.386      46.275875      40.513058      193.19433    
    146500  -20840.554      113.54464     -20727.009      46.270616      40.501705      193.2501     
    146600  -20837.948      113.75912     -20724.189      46.266092      40.490553      193.30588    
    146700  -20839.62       117.31776     -20722.302      46.262416      40.479769      193.36165    
    146800  -20840.104      114.40167     -20725.703      46.25738       40.468379      193.41742    
    146900  -20842.404      113.49084     -20728.913      46.252532      40.4579        193.47319    
    147000  -20839.452      110.74541     -20728.706      46.246964      40.446922      193.52896    
    147100  -20837.793      111.55283     -20726.24       46.242225      40.436392      193.58474    
    147200  -20839.097      115.41968     -20723.677      46.237433      40.425675      193.64051    
    147300  -20838.355      113.66476     -20724.69       46.232909      40.414997      193.69628    
    147400  -20841.958      111.7614      -20730.197      46.229956      40.404632      193.75205    
    147500  -20840.119      110.1359      -20729.984      46.225476      40.39333       193.80783    
    147600  -20840.507      113.19123     -20727.316      46.221227      40.383452      193.8636     
    147700  -20842.406      117.50945     -20724.897      46.216187      40.372804      193.91937    
    147800  -20838.617      113.3871      -20725.23       46.211966      40.364008      193.97514    
    147900  -20841.406      111.91807     -20729.488      46.205279      40.354411      194.03091    
    148000  -20842.823      111.52791     -20731.296      46.198584      40.345134      194.08669    
    148100  -20839.417      110.31067     -20729.107      46.19394       40.335468      194.14246    
    148200  -20838.862      112.5804      -20726.281      46.188134      40.324482      194.19823    
    148300  -20840.139      115.34919     -20724.79       46.182612      40.314889      194.254      
    148400  -20837.926      112.86022     -20725.066      46.17617       40.303686      194.30977    
    148500  -20839.197      111.10202     -20728.095      46.170779      40.293509      194.36555    
    148600  -20840.507      109.21488     -20731.292      46.164709      40.282675      194.42132    
    148700  -20842.256      113.01203     -20729.244      46.157692      40.271853      194.47709    
    148800  -20837.791      111.022       -20726.769      46.151567      40.260969      194.53286    
    148900  -20838.904      113.03655     -20725.868      46.145104      40.249165      194.58863    
    149000  -20838.891      113.12656     -20725.765      46.139179      40.238539      194.64441    
    149100  -20840.567      114.41045     -20726.157      46.132541      40.227945      194.70018    
    149200  -20839.429      110.60807     -20728.821      46.126603      40.217797      194.75595    
    149300  -20841.043      111.17175     -20729.871      46.121451      40.207809      194.81172    
    149400  -20842.038      113.94074     -20728.097      46.115739      40.197474      194.86749    
    149500  -20841.854      117.73651     -20724.118      46.108719      40.186556      194.92327    
    149600  -20838.439      114.64825     -20723.791      46.101496      40.175651      194.97904    
    149700  -20836.815      110.67886     -20726.136      46.095176      40.164469      195.03481    
    149800  -20841.39       111.6097      -20729.781      46.088605      40.152843      195.09058    
    149900  -20845.087      110.21765     -20734.869      46.08321       40.142098      195.14635    
    150000  -20839.654      106.49625     -20733.158      46.077864      40.131727      195.20213    
    150100  -20841.222      111.68634     -20729.536      46.071784      40.120681      195.2579     
    150200  -20839.397      114.41163     -20724.986      46.066942      40.109844      195.31367    
    150300  -20838.57       115.64887     -20722.921      46.061886      40.098351      195.36944    
    150400  -20838.888      115.82961     -20723.058      46.056318      40.087204      195.42521    
    150500  -20839.353      112.75992     -20726.593      46.051285      40.075867      195.48099    
    150600  -20841.863      114.69731     -20727.166      46.047803      40.065744      195.53676    
    150700  -20838.271      111.93116     -20726.339      46.0419        40.054898      195.59253    
    150800  -20838.796      115.7366      -20723.059      46.034493      40.045558      195.6483     
    150900  -20839.627      119.16255     -20720.465      46.027158      40.036011      195.70407    
    151000  -20837.76       114.04468     -20723.716      46.020267      40.026584      195.75985    
    151100  -20837.156      111.4827      -20725.673      46.012379      40.017572      195.81562    
    151200  -20839.806      113.52924     -20726.277      46.006441      40.008402      195.87139    
    151300  -20838.301      112.10886     -20726.192      46.001436      39.999121      195.92716    
    151400  -20837.722      113.10322     -20724.619      45.996959      39.990409      195.98293    
    151500  -20837.354      115.45915     -20721.895      45.99204       39.980864      196.03871    
    151600  -20836.875      114.43656     -20722.438      45.98741       39.971194      196.09448    
    151700  -20841.95       114.8597      -20727.09       45.982347      39.960393      196.15025    
    151800  -20840.986      112.8799      -20728.106      45.975306      39.949726      196.20602    
    151900  -20842.173      114.94959     -20727.224      45.968264      39.939399      196.26179    
    152000  -20837.986      113.22007     -20724.766      45.962117      39.928324      196.31757    
    152100  -20837.842      116.75156     -20721.09       45.957237      39.918171      196.37334    
    152200  -20835.06       115.76708     -20719.293      45.951256      39.907321      196.42911    
    152300  -20837.038      111.90488     -20725.133      45.947436      39.897899      196.48488    
    152400  -20840.796      113.45734     -20727.338      45.943787      39.888055      196.54065    
    152500  -20841.086      112.91895     -20728.167      45.939162      39.878004      196.59643    
    152600  -20841.283      114.63655     -20726.647      45.934053      39.868778      196.6522     
    152700  -20840.218      116.5793      -20723.639      45.928678      39.859329      196.70797    
    152800  -20837.273      113.67438     -20723.599      45.923621      39.85006       196.76374    
    152900  -20839.984      112.12824     -20727.856      45.915617      39.839052      196.81952    
    153000  -20840.535      110.8319      -20729.703      45.907716      39.828917      196.87529    
    153100  -20840.18       111.78676     -20728.393      45.900721      39.818346      196.93106    
    153200  -20839.369      113.06877     -20726.3        45.894743      39.807296      196.98683    
    153300  -20838.974      113.65628     -20725.318      45.889771      39.796753      197.0426     
    153400  -20840.561      115.36362     -20725.197      45.884836      39.785963      197.09838    
    153500  -20841.119      113.76239     -20727.356      45.881254      39.776004      197.15415    
    153600  -20843.2        113.99801     -20729.202      45.878803      39.76565       197.20992    
    153700  -20841.713      112.07656     -20729.637      45.876358      39.755832      197.26569    
    153800  -20838.424      111.495       -20726.929      45.871702      39.745356      197.32146    
    153900  -20838.372      114.75922     -20723.612      45.866484      39.735591      197.37724    
    154000  -20839.36       115.38241     -20723.978      45.861079      39.725267      197.43301    
    154100  -20837.897      111.62773     -20726.269      45.854451      39.714478      197.48878    
    154200  -20839.944      112.08053     -20727.863      45.84708       39.703865      197.54455    
    154300  -20839.06       111.47724     -20727.583      45.841137      39.693283      197.60032    
    154400  -20838.89       112.26615     -20726.624      45.835661      39.682885      197.6561     
    154500  -20837.845      112.98791     -20724.857      45.829739      39.672218      197.71187    
    154600  -20838.287      115.96101     -20722.326      45.826112      39.661965      197.76764    
    154700  -20840.635      117.81674     -20722.818      45.824281      39.651896      197.82341    
    154800  -20838.429      111.32131     -20727.108      45.819089      39.6411        197.87918    
    154900  -20839.301      110.73678     -20728.564      45.814457      39.632323      197.93496    
    155000  -20842.111      114.44133     -20727.67       45.808652      39.622048      197.99073    
    155100  -20841.401      116.53589     -20724.866      45.801216      39.612454      198.0465     
    155200  -20836.892      114.46277     -20722.43       45.790984      39.602419      198.10227    
    155300  -20841.045      116.67208     -20724.373      45.782695      39.593192      198.15804    
    155400  -20841.396      112.48162     -20728.915      45.774679      39.584056      198.21382    
    155500  -20842.803      113.30606     -20729.496      45.766864      39.575233      198.26959    
    155600  -20840.578      113.01002     -20727.568      45.760589      39.565996      198.32536    
    155700  -20840.447      115.56764     -20724.879      45.756414      39.555764      198.38113    
    155800  -20839.006      114.05151     -20724.954      45.752308      39.54658       198.4369     
    155900  -20843.763      114.04373     -20729.72       45.74574       39.536055      198.49268    
    156000  -20841.661      110.54558     -20731.115      45.740853      39.526925      198.54845    
    156100  -20839.349      110.74318     -20728.606      45.736146      39.517066      198.60422    
    156200  -20838.548      112.37106     -20726.177      45.73006       39.507789      198.65999    
    156300  -20839.657      113.99445     -20725.663      45.723727      39.499039      198.71576    
    156400  -20841.289      114.81208     -20726.477      45.71852       39.489634      198.77154    
    156500  -20841.38       110.36148     -20731.018      45.715118      39.480588      198.82731    
    156600  -20841.587      109.22209     -20732.365      45.710961      39.471504      198.88308    
    156700  -20841.57       112.06208     -20729.508      45.707049      39.46262       198.93885    
    156800  -20840.951      114.00336     -20726.948      45.702982      39.452509      198.99462    
    156900  -20840.819      114.4676      -20726.352      45.699905      39.442387      199.0504     
    157000  -20839.363      112.9899      -20726.373      45.694781      39.431912      199.10617    
    157100  -20839.809      112.80884     -20727          45.686896      39.421016      199.16194    
    157200  -20841.91       112.7277      -20729.182      45.680681      39.410848      199.21771    
    157300  -20842.308      112.07229     -20730.236      45.675848      39.399678      199.27348    
    157400  -20840.7        113.19966     -20727.5        45.669666      39.389382      199.32926    
    157500  -20840.355      116.14838     -20724.207      45.66302       39.380284      199.38503    
    157600  -20839.519      114.71717     -20724.802      45.657484      39.371458      199.4408     
    157700  -20841.178      114.37886     -20726.799      45.652544      39.362396      199.49657    
    157800  -20840.697      113.2014      -20727.495      45.645902      39.352729      199.55234    
    157900  -20840.308      113.14571     -20727.162      45.63896       39.343009      199.60812    
    158000  -20841.372      114.74671     -20726.626      45.632287      39.333042      199.66389    
    158100  -20842.205      114.70454     -20727.501      45.62521       39.3239        199.71966    
    158200  -20842.236      111.31249     -20730.924      45.616292      39.315193      199.77543    
    158300  -20843.442      111.89017     -20731.551      45.607168      39.306548      199.8312     
    158400  -20841.262      113.32742     -20727.935      45.600305      39.298618      199.88698    
    158500  -20837.457      111.63235     -20725.824      45.595657      39.290737      199.94275    
    158600  -20841.929      115.7443      -20726.184      45.590797      39.2823        199.99852    
    158700  -20839.957      112.55869     -20727.398      45.586879      39.273999      200.05429    
    158800  -20843.477      113.20488     -20730.272      45.582283      39.264475      200.11007    
    158900  -20845.595      112.74866     -20732.847      45.576683      39.25596       200.16584    
    159000  -20840.517      110.74616     -20729.771      45.568539      39.247072      200.22161    
    159100  -20841.117      114.51338     -20726.604      45.560766      39.239285      200.27738    
    159200  -20840.712      114.31725     -20726.395      45.553325      39.23042       200.33315    
    159300  -20841.18       114.29933     -20726.881      45.545961      39.221335      200.38893    
    159400  -20841.528      112.99569     -20728.532      45.538804      39.212345      200.4447     
    159500  -20840.574      109.81662     -20730.757      45.53184       39.202999      200.50047    
    159600  -20844.411      114.92166     -20729.49       45.526667      39.194196      200.55624    
    159700  -20839.556      114.59182     -20724.965      45.520931      39.184463      200.61201    
    159800  -20839.409      115.1014      -20724.308      45.515883      39.175472      200.66779    
    159900  -20838.713      112.59865     -20726.114      45.509641      39.16712       200.72356    
    160000  -20841.407      112.20948     -20729.197      45.501767      39.158608      200.77933    
    160100  -20842.243      112.15079     -20730.092      45.494577      39.151055      200.8351     
    160200  -20839.813      111.91887     -20727.894      45.485722      39.142812      200.89087    
    160300  -20839.713      113.23833     -20726.475      45.475903      39.13468       200.94665    
    160400  -20838.192      112.10164     -20726.09       45.466494      39.125869      201.00242    
    160500  -20840.437      113.87962     -20726.558      45.459871      39.117804      201.05819    
    160600  -20841.348      113.84999     -20727.498      45.452452      39.109309      201.11396    
    160700  -20841.904      113.80658     -20728.097      45.445073      39.101556      201.16973    
    160800  -20841.115      113.31607     -20727.799      45.437705      39.09328       201.22551    
    160900  -20839.455      113.94965     -20725.505      45.432618      39.085589      201.28128    
    161000  -20840.701      117.30019     -20723.4        45.427849      39.077223      201.33705    
    161100  -20839.425      115.02062     -20724.405      45.42094       39.068205      201.39282    
    161200  -20840.944      112.00436     -20728.94       45.414814      39.060191      201.44859    
    161300  -20841.75       112.29036     -20729.46       45.406332      39.051185      201.50437    
    161400  -20841.114      113.48108     -20727.633      45.397934      39.043405      201.56014    
    161500  -20838.753      113.65882     -20725.094      45.389447      39.034497      201.61591    
    161600  -20840.724      116.16286     -20724.561      45.383944      39.025585      201.67168    
    161700  -20838.791      112.28308     -20726.508      45.37926       39.016272      201.72745    
    161800  -20844.449      112.05305     -20732.396      45.373912      39.006208      201.78323    
    161900  -20842.49       111.8446      -20730.646      45.370998      38.997692      201.839      
    162000  -20839.816      113.11135     -20726.705      45.368145      38.988396      201.89477    
    162100  -20838.492      113.92572     -20724.566      45.364092      38.979549      201.95054    
    162200  -20838.49       114.36475     -20724.125      45.358561      38.97079       202.00631    
    162300  -20840.685      113.08352     -20727.602      45.352913      38.962298      202.06209    
    162400  -20842.068      112.04557     -20730.022      45.345016      38.954358      202.11786    
    162500  -20840.721      111.5906      -20729.13       45.335976      38.946187      202.17363    
    162600  -20840.167      113.21013     -20726.956      45.328237      38.937238      202.2294     
    162700  -20839.028      113.33317     -20725.695      45.323642      38.928936      202.28517    
    162800  -20839.542      113.42619     -20726.116      45.31761       38.920493      202.34095    
    162900  -20840.051      113.22377     -20726.827      45.311386      38.912697      202.39672    
    163000  -20839.698      112.57047     -20727.128      45.306977      38.905037      202.45249    
    163100  -20840.592      113.46552     -20727.126      45.304344      38.897983      202.50826    
    163200  -20839.122      111.98265     -20727.139      45.299767      38.890337      202.56403    
    163300  -20841.776      115.09568     -20726.68       45.294573      38.883291      202.61981    
    163400  -20839.992      114.37371     -20725.618      45.28831       38.875869      202.67558    
    163500  -20839.121      113.73547     -20725.386      45.281689      38.868821      202.73135    
    163600  -20840.607      113.59317     -20727.014      45.275538      38.861966      202.78712    
    163700  -20841.68       111.51069     -20730.169      45.267784      38.854087      202.84289    
    163800  -20841.466      110.85503     -20730.611      45.260831      38.847049      202.89867    
    163900  -20839.259      112.9303      -20726.328      45.253194      38.838907      202.95444    
    164000  -20838.001      113.51667     -20724.485      45.246929      38.831371      203.01021    
    164100  -20838.722      113.2081      -20725.514      45.24151       38.823221      203.06598    
    164200  -20840.325      112.73939     -20727.586      45.238605      38.815316      203.12176    
    164300  -20841.185      111.62295     -20729.562      45.235802      38.807716      203.17753    
    164400  -20843.478      112.39258     -20731.085      45.230369      38.799667      203.2333     
    164500  -20841.638      111.50435     -20730.134      45.223548      38.791211      203.28907    
    164600  -20842.9        116.78344     -20726.116      45.217342      38.783765      203.34484    
    164700  -20837.589      112.93947     -20724.65       45.209178      38.775752      203.40062    
    164800  -20840.905      114.78779     -20726.117      45.200406      38.768276      203.45639    
    164900  -20841.006      111.26473     -20729.741      45.191709      38.75994       203.51216    
    165000  -20842.436      112.28267     -20730.153      45.184478      38.752171      203.56793    
    165100  -20839.929      110.90421     -20729.025      45.177447      38.7433        203.6237     
    165200  -20841.808      113.99081     -20727.817      45.172098      38.734831      203.67948    
    165300  -20839.71       113.35398     -20726.356      45.167043      38.726067      203.73525    
    165400  -20838.903      113.77851     -20725.124      45.162538      38.716407      203.79102    
    165500  -20838.935      115.90787     -20723.027      45.159457      38.706957      203.84679    
    165600  -20836.415      112.9531      -20723.462      45.15551       38.696418      203.90256    
    165700  -20838.99       111.45466     -20727.535      45.151786      38.687287      203.95834    
    165800  -20841.8        112.86441     -20728.935      45.146468      38.678187      204.01411    
    165900  -20841.356      113.31716     -20728.039      45.141807      38.669167      204.06988    
    166000  -20837.377      112.97225     -20724.405      45.135751      38.659828      204.12565    
    166100  -20837.188      114.76508     -20722.423      45.127753      38.649776      204.18142    
    166200  -20841.203      117.33968     -20723.863      45.119497      38.639646      204.2372     
    166300  -20838.744      113.0614      -20725.682      45.110724      38.629019      204.29297    
    166400  -20839.073      112.09091     -20726.982      45.103483      38.619317      204.34874    
    166500  -20843.418      115.7164      -20727.702      45.096329      38.60841       204.40451    
    166600  -20841.528      114.51392     -20727.014      45.091509      38.598659      204.46028    
    166700  -20836.513      111.93719     -20724.576      45.08651       38.589077      204.51606    
    166800  -20838.676      115.4114      -20723.265      45.081062      38.579599      204.57183    
    166900  -20839.608      113.96551     -20725.643      45.076737      38.570468      204.6276     
    167000  -20842.025      112.84241     -20729.183      45.069803      38.560594      204.68337    
    167100  -20841.409      112.16298     -20729.246      45.060816      38.551302      204.73914    
    167200  -20838.949      111.54003     -20727.409      45.050815      38.540986      204.79492    
    167300  -20843.443      117.73588     -20725.707      45.042513      38.532687      204.85069    
    167400  -20841.054      115.33107     -20725.722      45.031722      38.522899      204.90646    
    167500  -20839.785      113.46094     -20726.324      45.021111      38.51365       204.96223    
    167600  -20842.313      115.17928     -20727.134      45.013406      38.503469      205.018      
    167700  -20840.999      112.54081     -20728.458      45.006875      38.492409      205.07378    
    167800  -20841.447      111.69712     -20729.75       45.000715      38.482684      205.12955    
    167900  -20844.087      112.46567     -20731.621      44.995639      38.471553      205.18532    
    168000  -20839.619      109.73655     -20729.882      44.992786      38.461835      205.24109    
    168100  -20839.941      113.91569     -20726.025      44.987636      38.45106       205.29686    
    168200  -20839.764      114.50168     -20725.263      44.981938      38.441207      205.35264    
    168300  -20840.853      114.42788     -20726.426      44.975766      38.431171      205.40841    
    168400  -20843.807      113.67572     -20730.131      44.967488      38.42026       205.46418    
    168500  -20842.439      110.37699     -20732.062      44.956317      38.409554      205.51995    
    168600  -20841.604      111.31303     -20730.291      44.942599      38.398413      205.57572    
    168700  -20840.581      111.98412     -20728.597      44.930069      38.388177      205.6315     
    168800  -20840.852      114.32659     -20726.526      44.918634      38.377596      205.68727    
    168900  -20840.339      115.35244     -20724.987      44.909499      38.36673       205.74304    
    169000  -20841.02       115.81802     -20725.202      44.904686      38.355589      205.79881    
    169100  -20840.552      111.01985     -20729.532      44.901584      38.344315      205.85458    
    169200  -20844.111      113.24922     -20730.862      44.89663       38.332457      205.91036    
    169300  -20841.697      113.07557     -20728.622      44.890536      38.321208      205.96613    
    169400  -20839.775      113.99739     -20725.777      44.883856      38.310908      206.0219     
    169500  -20840.397      115.01407     -20725.383      44.873252      38.300129      206.07767    
    169600  -20839.505      112.9797      -20726.525      44.861444      38.289805      206.13345    
    169700  -20841.407      113.39287     -20728.014      44.849109      38.278949      206.18922    
    169800  -20840.03       110.95896     -20729.071      44.838247      38.26884       206.24499    
    169900  -20841.639      113.66082     -20727.978      44.828501      38.257937      206.30076    
    170000  -20837.17       112.57742     -20724.593      44.82307       38.248147      206.35653    
    170100  -20839.541      115.50128     -20724.039      44.821854      38.238416      206.41231    
    170200  -20839.719      112.79431     -20726.924      44.821807      38.229431      206.46808    
    170300  -20840.147      110.73777     -20729.409      44.820673      38.219455      206.52385    
    170400  -20842.099      113.14063     -20728.958      44.819562      38.209781      206.57962    
    170500  -20842.477      115.06669     -20727.41       44.814825      38.199802      206.63539    
    170600  -20841.381      114.92086     -20726.46       44.807838      38.190242      206.69117    
    170700  -20841.017      115.03026     -20725.987      44.797126      38.180084      206.74694    
    170800  -20839.764      113.74953     -20726.015      44.783925      38.170563      206.80271    
    170900  -20838.717      110.78353     -20727.933      44.770685      38.161507      206.85848    
    171000  -20840.903      110.69843     -20730.205      44.757715      38.152112      206.91425    
    171100  -20842.968      113.67704     -20729.291      44.74731       38.142764      206.97003    
    171200  -20838.854      113.81965     -20725.034      44.739983      38.132736      207.0258     
    171300  -20839.482      115.13781     -20724.345      44.736712      38.123523      207.08157    
    171400  -20840.89       114.73528     -20726.154      44.733713      38.11311       207.13734    
    171500  -20841.117      112.89673     -20728.22       44.730414      38.103033      207.19311    
    171600  -20843.573      114.05057     -20729.523      44.725102      38.09382       207.24889    
    171700  -20845.102      113.01201     -20732.09       44.715699      38.084125      207.30466    
    171800  -20842.441      109.56616     -20732.875      44.704911      38.075327      207.36043    
    171900  -20842.133      113.53631     -20728.597      44.694281      38.066173      207.4162     
    172000  -20842.322      116.24248     -20726.079      44.683056      38.056816      207.47197    
    172100  -20840.82       115.01582     -20725.804      44.671303      38.047154      207.52775    
    172200  -20840.616      113.309       -20727.307      44.664013      38.037566      207.58352    
    172300  -20840.092      109.6842      -20730.408      44.661475      38.028121      207.63929    
    172400  -20840.173      109.43366     -20730.739      44.661279      38.018512      207.69506    
    172500  -20839.829      114.06376     -20725.766      44.662702      38.009975      207.75083    
    172600  -20841.806      117.49425     -20724.312      44.664803      38.001001      207.80661    
    172700  -20840.229      114.34964     -20725.879      44.665233      37.991897      207.86238    
    172800  -20843.735      115.3403      -20728.394      44.660239      37.982317      207.91815    
    172900  -20842.215      112.38649     -20729.829      44.651582      37.972652      207.97392    
    173000  -20842.941      114.25294     -20728.688      44.643349      37.963172      208.02969    
    173100  -20838.544      113.79411     -20724.75       44.631564      37.954006      208.08547    
    173200  -20838.022      114.31869     -20723.703      44.618048      37.945605      208.14124    
    173300  -20839.822      114.61935     -20725.203      44.608609      37.936715      208.19701    
    173400  -20841.57       112.87811     -20728.692      44.603962      37.928779      208.25278    
    173500  -20843.455      114.0528      -20729.402      44.599569      37.91961       208.30855    
    173600  -20839.5        111.54049     -20727.959      44.59782       37.91062       208.36433    
    173700  -20840.317      113.8812      -20726.436      44.598269      37.901959      208.4201     
    173800  -20841.198      114.69644     -20726.501      44.595708      37.893131      208.47587    
    173900  -20839.712      112.65679     -20727.055      44.589624      37.884638      208.53164    
    174000  -20837.886      111.17636     -20726.71       44.581861      37.876245      208.58741    
    174100  -20840.455      114.42872     -20726.026      44.570167      37.867413      208.64319    
    174200  -20838.342      113.87443     -20724.467      44.556392      37.859422      208.69896    
    174300  -20838.883      114.97886     -20723.904      44.543474      37.85116       208.75473    
    174400  -20840.597      113.81173     -20726.785      44.534608      37.843351      208.8105     
    174500  -20840.244      111.20752     -20729.036      44.527328      37.834477      208.86627    
    174600  -20840.267      111.72732     -20728.54       44.524409      37.826797      208.92205    
    174700  -20839.4        114.42394     -20724.976      44.525817      37.818868      208.97782    
    174800  -20837.298      114.89807     -20722.4        44.526832      37.810643      209.03359    
    174900  -20841.497      117.4418      -20724.055      44.524769      37.802822      209.08936    
    175000  -20840.3        114.38487     -20725.915      44.519552      37.794194      209.14513    
    175100  -20841.71       114.92989     -20726.78       44.512468      37.785517      209.20091    
    175200  -20840.151      112.98492     -20727.166      44.502895      37.776777      209.25668    
    175300  -20841.385      113.59503     -20727.79       44.490344      37.768534      209.31245    
    175400  -20841.031      112.80486     -20728.227      44.475849      37.759896      209.36822    
    175500  -20841.823      114.62212     -20727.201      44.462649      37.751161      209.424      
    175600  -20839.015      114.06513     -20724.949      44.452131      37.742462      209.47977    
    175700  -20838.667      115.2365      -20723.431      44.445367      37.733194      209.53554    
    175800  -20838.226      113.3616      -20724.864      44.43947       37.723268      209.59131    
    175900  -20842.498      113.3129      -20729.185      44.433548      37.712555      209.64708    
    176000  -20840.609      111.36637     -20729.242      44.430154      37.702524      209.70286    
    176100  -20843.037      115.60887     -20727.428      44.42584       37.692819      209.75863    
    176200  -20840.434      116.35973     -20724.074      44.41755       37.682802      209.8144     
    176300  -20839.028      115.92924     -20723.098      44.407564      37.673467      209.87017    
    176400  -20839.02       110.30066     -20728.72       44.397942      37.663684      209.92594    
    176500  -20843.228      112.81377     -20730.414      44.386085      37.654448      209.98172    
    176600  -20838.988      110.76683     -20728.221      44.372862      37.644589      210.03749    
    176700  -20839.159      114.08351     -20725.076      44.362538      37.635307      210.09326    
    176800  -20839.06       114.82416     -20724.236      44.354759      37.625979      210.14903    
    176900  -20841.383      113.98426     -20727.399      44.346976      37.61659       210.2048     
    177000  -20843.513      113.10101     -20730.412      44.341894      37.607527      210.26058    
    177100  -20842.904      113.41549     -20729.489      44.337883      37.597248      210.31635    
    177200  -20841.808      115.14339     -20726.664      44.333708      37.587865      210.37212    
    177300  -20839.707      114.48442     -20725.222      44.328854      37.577706      210.42789    
    177400  -20840.353      114.20381     -20726.149      44.324544      37.567998      210.48366    
    177500  -20839.683      113.13822     -20726.545      44.319102      37.559106      210.53944    
    177600  -20840.095      113.24759     -20726.848      44.31007       37.549758      210.59521    
    177700  -20839.413      111.09143     -20728.321      44.30159       37.541887      210.65098    
    177800  -20843.415      112.47443     -20730.941      44.290542      37.531956      210.70675    
    177900  -20841.828      112.02501     -20729.803      44.280302      37.523086      210.76252    
    178000  -20840.384      114.19483     -20726.189      44.270684      37.513641      210.8183     
    178100  -20839.883      114.7969      -20725.086      44.264095      37.504661      210.87407    
    178200  -20838.459      112.93837     -20725.521      44.259316      37.495824      210.92984    
    178300  -20840.28       111.72917     -20728.551      44.255903      37.486853      210.98561    
    178400  -20845.578      113.79157     -20731.787      44.253812      37.478671      211.04138    
    178500  -20843.068      112.93225     -20730.136      44.252072      37.470816      211.09716    
    178600  -20838.944      111.81652     -20727.127      44.247178      37.462856      211.15293    
    178700  -20835.55       109.51825     -20726.031      44.239093      37.452988      211.2087     
    178800  -20841.586      115.76499     -20725.821      44.231969      37.444093      211.26447    
    178900  -20841.413      114.11665     -20727.297      44.221514      37.434642      211.32024    
    179000  -20842.978      111.93725     -20731.041      44.21104       37.425972      211.37602    
    179100  -20841.428      110.31324     -20731.115      44.202787      37.416468      211.43179    
    179200  -20839.415      112.58441     -20726.831      44.196167      37.407002      211.48756    
    179300  -20839.945      114.06844     -20725.876      44.189831      37.398478      211.54333    
    179400  -20839.998      114.13282     -20725.865      44.18472       37.389848      211.5991     
    179500  -20839.228      112.13756     -20727.09       44.181817      37.381339      211.65488    
    179600  -20839.987      111.43344     -20728.554      44.177246      37.373067      211.71065    
    179700  -20839.715      110.68114     -20729.034      44.172287      37.365891      211.76642    
    179800  -20840.205      114.21259     -20725.992      44.166524      37.359         211.82219    
    179900  -20839.425      116.06811     -20723.357      44.159102      37.351802      211.87796    
    180000  -20838.612      114.32004     -20724.292      44.148777      37.344735      211.93374    
    180100  -20839.53       111.86212     -20727.668      44.13774       37.337572      211.98951    
    180200  -20840.237      111.4199      -20728.818      44.129347      37.329873      212.04528    
    180300  -20840.065      112.22434     -20727.84       44.122874      37.3219        212.10105    
    180400  -20841.657      115.83261     -20725.824      44.116464      37.314377      212.15682    
    180500  -20838.547      114.28891     -20724.258      44.109162      37.306794      212.2126     
    180600  -20837.853      112.36341     -20725.49       44.104222      37.298896      212.26837    
    180700  -20843.456      113.50147     -20729.954      44.098932      37.291343      212.32414    
    180800  -20839.171      109.2572      -20729.914      44.091488      37.283419      212.37991    
    180900  -20841.149      114.54138     -20726.608      44.082379      37.274419      212.43569    
    181000  -20839.065      113.87286     -20725.192      44.073209      37.265591      212.49146    
    181100  -20838.107      112.6294      -20725.478      44.063771      37.256683      212.54723    
    181200  -20839.135      112.1987      -20726.937      44.055111      37.249003      212.603      
    181300  -20842.766      112.89875     -20729.867      44.046799      37.241171      212.65877    
    181400  -20843.19       109.37154     -20733.819      44.039681      37.234462      212.71455    
    181500  -20841.46       109.93011     -20731.529      44.032765      37.228053      212.77032    
    181600  -20840.196      111.68078     -20728.516      44.027547      37.221338      212.82609    
    181700  -20839.536      113.45215     -20726.084      44.022966      37.214806      212.88186    
    181800  -20840.299      116.04819     -20724.25       44.017344      37.208038      212.93763    
    181900  -20840.214      114.73079     -20725.483      44.012974      37.201353      212.99341    
    182000  -20839.171      109.62546     -20729.545      44.009663      37.195306      213.04918    
    182100  -20842.851      112.92842     -20729.922      44.002868      37.188365      213.10495    
    182200  -20839.042      111.18374     -20727.859      43.994999      37.181204      213.16072    
    182300  -20839.075      112.25396     -20726.821      43.988906      37.173506      213.21649    
    182400  -20844.178      117.56705     -20726.611      43.983205      37.166097      213.27227    
    182500  -20838.806      112.05144     -20726.755      43.977025      37.158412      213.32804    
    182600  -20839.686      112.70839     -20726.978      43.973601      37.151582      213.38381    
    182700  -20842.135      114.63934     -20727.495      43.971715      37.144102      213.43958    
    182800  -20839.174      111.22528     -20727.949      43.969579      37.136903      213.49535    
    182900  -20841.422      113.96051     -20727.462      43.965375      37.129694      213.55113    
    183000  -20838.182      112.6821      -20725.5        43.959499      37.122087      213.6069     
    183100  -20839.543      116.43909     -20723.104      43.951955      37.115096      213.66267    
    183200  -20837.399      114.84873     -20722.55       43.941486      37.107458      213.71844    
    183300  -20840.14       112.80781     -20727.332      43.930351      37.100311      213.77421    
    183400  -20841.529      112.53993     -20728.99       43.920176      37.092727      213.82999    
    183500  -20841.648      113.83787     -20727.81       43.912012      37.085878      213.88576    
    183600  -20839.722      114.59976     -20725.122      43.904867      37.078917      213.94153    
    183700  -20838.776      116.17426     -20722.602      43.899406      37.071554      213.9973     
    183800  -20837.96       114.83288     -20723.127      43.894826      37.064532      214.05307    
    183900  -20841.491      113.04288     -20728.448      43.889452      37.056699      214.10885    
    184000  -20842.588      112.72604     -20729.862      43.882554      37.049481      214.16462    
    184100  -20841.454      113.23361     -20728.221      43.874845      37.041471      214.22039    
    184200  -20839.373      114.38006     -20724.993      43.866608      37.034006      214.27616    
    184300  -20838.443      114.35911     -20724.084      43.85691       37.027286      214.33193    
    184400  -20837.934      112.19414     -20725.74       43.845894      37.019934      214.38771    
    184500  -20839.349      108.75331     -20730.596      43.837255      37.01353       214.44348    
    184600  -20841.24       110.77692     -20730.463      43.828228      37.005879      214.49925    
    184700  -20840.284      112.65689     -20727.627      43.819645      36.999327      214.55502    
    184800  -20839.756      114.45957     -20725.296      43.811583      36.992573      214.61079    
    184900  -20839.867      114.82993     -20725.037      43.804836      36.985977      214.66657    
    185000  -20841.09       113.70298     -20727.388      43.797746      36.979105      214.72234    
    185100  -20843.011      111.57623     -20731.435      43.789916      36.971347      214.77811    
    185200  -20843.081      112.62953     -20730.452      43.780453      36.963367      214.83388    
    185300  -20840.181      112.25061     -20727.93       43.769422      36.954646      214.88965    
    185400  -20838.983      112.80691     -20726.176      43.757491      36.946963      214.94543    
    185500  -20838.623      113.04613     -20725.576      43.745673      36.939017      215.0012     
    185600  -20839.543      113.55369     -20725.989      43.7343        36.93129       215.05697    
    185700  -20841.826      111.82897     -20729.997      43.723213      36.924369      215.11274    
    185800  -20840.983      110.02782     -20730.956      43.713326      36.916929      215.16851    
    185900  -20841.344      112.90444     -20728.44       43.70618       36.909825      215.22429    
    186000  -20838.095      112.43553     -20725.659      43.698223      36.902261      215.28006    
    186100  -20838.183      112.33705     -20725.846      43.692155      36.895704      215.33583    
    186200  -20840.126      113.53082     -20726.595      43.685443      36.888264      215.3916     
    186300  -20839.734      112.28159     -20727.452      43.677963      36.881236      215.44738    
    186400  -20841.959      112.7396      -20729.22       43.669835      36.874084      215.50315    
    186500  -20840.809      110.60281     -20730.207      43.661217      36.866844      215.55892    
    186600  -20841.099      112.88791     -20728.212      43.652138      36.859138      215.61469    
    186700  -20837.235      112.88924     -20724.346      43.642206      36.850508      215.67046    
    186800  -20838.875      114.57123     -20724.304      43.634724      36.842358      215.72624    
    186900  -20841.329      114.93406     -20726.395      43.628449      36.833427      215.78201    
    187000  -20840.798      112.43344     -20728.364      43.622433      36.825697      215.83778    
    187100  -20840.454      112.24765     -20728.206      43.618722      36.81811       215.89355    
    187200  -20841.02       113.74642     -20727.273      43.617535      36.810253      215.94932    
    187300  -20838.079      112.01156     -20726.067      43.614793      36.802306      216.0051     
    187400  -20837.818      113.12562     -20724.692      43.61015       36.794663      216.06087    
    187500  -20837.003      113.78972     -20723.213      43.603669      36.786895      216.11664    
    187600  -20839.993      116.62888     -20723.364      43.594264      36.778659      216.17241    
    187700  -20838.725      111.28666     -20727.438      43.5844        36.771676      216.22818    
    187800  -20841.73       112.85186     -20728.878      43.573114      36.764296      216.28396    
    187900  -20840.148      112.38538     -20727.763      43.564736      36.757505      216.33973    
    188000  -20838.227      114.29637     -20723.93       43.557613      36.75029       216.3955     
    188100  -20839.063      116.33438     -20722.729      43.551512      36.743925      216.45127    
    188200  -20840.541      116.48853     -20724.052      43.545567      36.736354      216.50704    
    188300  -20839.784      114.10894     -20725.675      43.540037      36.728282      216.56282    
    188400  -20840.438      113.48286     -20726.955      43.535762      36.720847      216.61859    
    188500  -20839.031      111.64767     -20727.383      43.530736      36.713161      216.67436    
    188600  -20839.61       114.05601     -20725.554      43.521674      36.705448      216.73013    
    188700  -20839.017      115.86532     -20723.152      43.510884      36.697445      216.7859     
    188800  -20839.777      115.8081      -20723.968      43.500994      36.690084      216.84168    
    188900  -20839.5        111.75884     -20727.741      43.492388      36.6834        216.89745    
    189000  -20840.933      111.9999      -20728.933      43.483963      36.676753      216.95322    
    189100  -20839.84       112.12317     -20727.717      43.477969      36.670153      217.00899    
    189200  -20840.621      114.42446     -20726.197      43.474351      36.664083      217.06476    
    189300  -20837.139      111.60925     -20725.53       43.469637      36.658038      217.12054    
    189400  -20841.36       115.96693     -20725.393      43.464059      36.651828      217.17631    
    189500  -20841.227      114.01766     -20727.209      43.457569      36.645004      217.23208    
    189600  -20839.48       110.87986     -20728.601      43.450584      36.638663      217.28785    
    189700  -20839.719      111.82143     -20727.898      43.440582      36.631032      217.34362    
    189800  -20839.366      114.17327     -20725.193      43.43095       36.623756      217.3994     
    189900  -20839.478      115.80705     -20723.671      43.422099      36.616679      217.45517    
    190000  -20841.203      116.07432     -20725.129      43.412078      36.609824      217.51094    
    190100  -20842.674      112.85918     -20729.815      43.403063      36.603074      217.56671    
    190200  -20842.75       112.85245     -20729.898      43.395542      36.59625       217.62248    
    190300  -20838.475      111.1263      -20727.349      43.387623      36.590185      217.67826    
    190400  -20840.02       114.44596     -20725.574      43.377983      36.584003      217.73403    
    190500  -20839.928      114.5529      -20725.375      43.36807       36.577312      217.7898     
    190600  -20838.173      112.18567     -20725.987      43.358182      36.570186      217.84557    
    190700  -20841.185      114.73231     -20726.453      43.348631      36.56326       217.90134    
    190800  -20840.479      113.69593     -20726.783      43.339478      36.555927      217.95712    
    190900  -20840.891      113.38353     -20727.507      43.331299      36.548333      218.01289    
    191000  -20839.927      108.85435     -20731.072      43.322357      36.541231      218.06866    
    191100  -20843.797      112.22004     -20731.577      43.311889      36.534904      218.12443    
    191200  -20839.286      111.76462     -20727.521      43.302628      36.529012      218.1802     
    191300  -20839.277      113.55891     -20725.718      43.291575      36.522825      218.23598    
    191400  -20839.454      113.56564     -20725.888      43.282447      36.517056      218.29175    
    191500  -20839.694      112.78246     -20726.912      43.27548       36.511247      218.34752    
    191600  -20843.27       113.54417     -20729.726      43.27016       36.505725      218.40329    
    191700  -20841.325      109.7161      -20731.608      43.264442      36.499781      218.45907    
    191800  -20841.604      112.8378      -20728.766      43.257901      36.493881      218.51484    
    191900  -20838.057      112.67189     -20725.385      43.249888      36.488277      218.57061    
    192000  -20840.855      115.63152     -20725.224      43.237751      36.481176      218.62638    
    192100  -20838.306      111.80066     -20726.505      43.224799      36.475177      218.68215    
    192200  -20840.627      110.92491     -20729.702      43.210847      36.46863       218.73793    
    192300  -20844.738      112.86292     -20731.876      43.196797      36.462319      218.7937     
    192400  -20841.289      113.09677     -20728.192      43.183146      36.455464      218.84947    
    192500  -20839.072      114.28733     -20724.784      43.16943       36.448331      218.90524    
    192600  -20839.497      114.41495     -20725.083      43.159282      36.441958      218.96101    
    192700  -20842.214      114.73239     -20727.482      43.147532      36.434904      219.01679    
    192800  -20841.636      111.74204     -20729.894      43.134203      36.428206      219.07256    
    192900  -20843.459      113.54607     -20729.913      43.117959      36.421308      219.12833    
    193000  -20839.299      114.77265     -20724.527      43.100124      36.414963      219.1841     
    193100  -20838.342      114.52955     -20723.813      43.080718      36.409134      219.23987    
    193200  -20841.063      114.88921     -20726.174      43.061441      36.403886      219.29565    
    193300  -20841.429      112.65894     -20728.77       43.044632      36.398911      219.35142    
    193400  -20841.929      112.34325     -20729.585      43.025456      36.39262       219.40719    
    193500  -20841.254      112.66671     -20728.587      43.00513       36.3866        219.46296    
    193600  -20841.436      113.97461     -20727.461      42.985855      36.380643      219.51873    
    193700  -20839.275      112.22953     -20727.046      42.963919      36.373585      219.57451    
    193800  -20840.254      112.76147     -20727.493      42.940491      36.367282      219.63028    
    193900  -20842.568      114.01291     -20728.555      42.917564      36.360639      219.68605    
    194000  -20841.915      111.00793     -20730.907      42.896134      36.35551       219.74182    
    194100  -20846.393      112.71197     -20733.681      42.874964      36.35016       219.79759    
    194200  -20843.52       111.14844     -20732.371      42.856467      36.344621      219.85337    
    194300  -20840.469      112.91445     -20727.554      42.838393      36.339824      219.90914    
    194400  -20843.44       116.44857     -20726.992      42.818099      36.333436      219.96491    
    194500  -20841.823      113.25056     -20728.572      42.798381      36.328435      220.02068    
    194600  -20844.053      112.72207     -20731.331      42.776169      36.323563      220.07645    
    194700  -20846.047      113.1212      -20732.926      42.751647      36.319672      220.13223    
    194800  -20842.734      111.50566     -20731.229      42.726432      36.315448      220.188      
    194900  -20842.282      115.09509     -20727.187      42.703431      36.311107      220.24377    
    195000  -20841.895      115.41779     -20726.477      42.681358      36.307935      220.29954    
    195100  -20843.657      114.93136     -20728.726      42.661533      36.305002      220.35531    
    195200  -20843.264      111.40916     -20731.855      42.643777      36.301121      220.41109    
    195300  -20844.222      112.43469     -20731.787      42.623582      36.296115      220.46686    
    195400  -20841.49       111.31248     -20730.178      42.60438       36.291332      220.52263    
    195500  -20844.821      115.48793     -20729.333      42.585905      36.286382      220.5784     
    195600  -20844.314      115.73916     -20728.575      42.567454      36.281937      220.63417    
    195700  -20842.613      114.27664     -20728.336      42.54752       36.277211      220.68995    
    195800  -20845.367      115.10297     -20730.264      42.527111      36.272583      220.74572    
    195900  -20843.568      110.38048     -20733.187      42.507293      36.268845      220.80149    
    196000  -20844.294      111.89679     -20732.397      42.488711      36.264525      220.85726    
    196100  -20843.5        114.83044     -20728.67       42.471482      36.26095       220.91303    
    196200  -20843.835      116.2165      -20727.618      42.45447       36.256569      220.96881    
    196300  -20842.823      114.46363     -20728.359      42.439547      36.252291      221.02458    
    196400  -20843.029      113.4979      -20729.531      42.425166      36.248214      221.08035    
    196500  -20844.036      112.74861     -20731.288      42.411898      36.244925      221.13612    
    196600  -20844.659      110.26483     -20734.394      42.397522      36.240632      221.19189    
    196700  -20846.438      112.15879     -20734.28       42.382715      36.23604       221.24767    
    196800  -20843.571      113.7227      -20729.848      42.368062      36.231908      221.30344    
    196900  -20842.733      114.60908     -20728.124      42.353327      36.228524      221.35921    
    197000  -20839.942      112.16701     -20727.775      42.338013      36.225339      221.41498    
    197100  -20843.555      114.50453     -20729.05       42.325052      36.222041      221.47075    
    197200  -20845.351      112.31696     -20733.034      42.315713      36.21983       221.52653    
    197300  -20844.648      111.69862     -20732.949      42.306198      36.217384      221.5823     
    197400  -20840.257      110.61133     -20729.646      42.297168      36.21519       221.63807    
    197500  -20843.405      114.94297     -20728.462      42.289284      36.212385      221.69384    
    197600  -20843.046      114.37313     -20728.673      42.280448      36.209083      221.74962    
    197700  -20844.225      114.38817     -20729.837      42.270015      36.206393      221.80539    
    197800  -20843.841      111.61449     -20732.227      42.260454      36.20489       221.86116    
    197900  -20844.625      110.5739      -20734.051      42.251853      36.203208      221.91693    
    198000  -20842.813      111.57661     -20731.236      42.24256       36.201107      221.9727     
    198100  -20840.484      112.72618     -20727.758      42.232445      36.199241      222.02848    
    198200  -20840.951      113.47058     -20727.481      42.223777      36.196957      222.08425    
    198300  -20843.046      113.77955     -20729.267      42.218823      36.194879      222.14002    
    198400  -20842.885      110.59141     -20732.294      42.211993      36.193079      222.19579    
    198500  -20845.177      111.77986     -20733.397      42.205855      36.191314      222.25156    
    198600  -20843.027      114.9619      -20728.065      42.199935      36.189004      222.30734    
    198700  -20839.068      112.56311     -20726.505      42.194362      36.187386      222.36311    
    198800  -20839.691      111.96336     -20727.728      42.186314      36.185042      222.41888    
    198900  -20844.293      113.67662     -20730.616      42.180143      36.182531      222.47465    
    199000  -20843.053      110.99705     -20732.056      42.175718      36.179205      222.53042    
    199100  -20842.093      112.37037     -20729.723      42.169596      36.176833      222.5862     
    199200  -20841.079      115.8687      -20725.21       42.162944      36.173756      222.64197    
    199300  -20841.487      115.13556     -20726.352      42.15763       36.170867      222.69774    
    199400  -20844.982      115.38269     -20729.599      42.151645      36.168782      222.75351    
    199500  -20843.526      112.67588     -20730.85       42.144727      36.165955      222.80928    
    199600  -20841.65       111.69923     -20729.951      42.13993       36.163468      222.86506    
    199700  -20840.613      114.30877     -20726.304      42.135492      36.159829      222.92083    
    199800  -20839.043      115.49612     -20723.547      42.131672      36.156982      222.9766     
    199900  -20841.273      115.92116     -20725.352      42.128195      36.153572      223.03237    
    200000  -20841.287      113.05028     -20728.237      42.124119      36.150262      223.08814    
Loop time of 1966 on 8 procs for 200000 steps with 2928 atoms

Performance: 8.789 ns/day, 2.731 hours/ns, 101.729 timesteps/s
92.0% CPU use with 8 MPI tasks x 1 OpenMP threads

MPI task timing breakdown:
Section |  min time  |  avg time  |  max time  |%varavg| %total
---------------------------------------------------------------
Pair    | 527.68     | 1182.8     | 1751       |1332.7 | 60.17
Neigh   | 3.1488     | 8.6833     | 14.32      | 131.6 |  0.44
Comm    | 137.24     | 474.2      | 803.65     |1129.7 | 24.12
Output  | 0.72342    | 0.72936    | 0.76795    |   1.7 |  0.04
Modify  | 58.249     | 295.7      | 918.73     |2067.2 | 15.04
Other   |            | 3.844      |            |       |  0.20

Nlocal:            366 ave        1213 max           0 min
Histogram: 4 1 0 0 1 0 0 0 1 1
Nghost:         1857.5 ave        4701 max           0 min
Histogram: 2 2 0 1 0 1 0 0 0 2
Neighs:              0 ave           0 max           0 min
Histogram: 8 0 0 0 0 0 0 0 0 0

Total # of neighbors = 0
Ave neighs/atom = 0
Neighbor list builds = 980
Dangerous builds = 0
Total wall time: 0:32:46
